50
1h1s
C          1.62160       29.00270        6.52550
C         -1.44140       31.82020        7.85010
C         -0.49460       26.30980        8.65700
C         -1.26910       25.66800        9.82390
C         -0.99150       24.14480        9.89380
C         -1.73310       23.47700       11.06850
C         -1.40690       24.15860       12.41410
C         -1.68650       25.67460       12.36160
C         -0.94700       26.34780       11.18450
C          4.98720       25.61220        5.69980
C          4.96700       25.11800        7.02200
C          4.23790       25.80310        8.01460
C          3.50330       26.93850        7.66520
N          0.90550       28.11500        7.17190
C         -0.18150       28.55040        7.78650
O         -0.90570       27.67930        8.55040
C         -0.54040       29.88930        7.70980
N         -1.63180       30.56710        8.26840
N         -0.28140       31.91860        7.09040
C          0.27660       30.70200        6.99810
N          1.37940       30.29340        6.38100
N          2.76940       28.55410        5.97410
C          3.49470       27.41750        6.34920
C          4.26170       26.76820        5.38340
H         -2.10050       32.65860        8.03270
H         -0.70480       25.77730        7.72130
H          0.58080       26.23550        8.85980
H         -2.33880       25.80410        9.62690
H          0.08510       23.97210       10.00690
H         -1.29620       23.66770        8.95510
H         -1.47210       22.41350       11.11760
H         -2.81190       23.53940       10.88430
H         -0.35060       23.99390       12.65680
H         -1.99730       23.70030       13.21600
H         -1.37930       26.13920       13.30580
H         -2.76510       25.83960       12.25630
H         -1.21810       27.40940       11.14910
H          0.13250       26.30020       11.36920
H          5.57100       25.12600        4.92390
H          4.23270       25.47450        9.04970
H          2.93350       27.45320        8.43320
H          0.03820       32.74250        6.60230
H          3.23200       29.21320        5.36110
H          4.28500       27.15720        4.36970
S          5.95120       23.71970        7.45560
O          6.79690       24.10680        8.56750
O          6.44420       23.00660        6.29210
H          5.00290       23.05330        9.11950
N          4.84270       22.76190        8.15630
H          4.00410       23.27540        7.88920
