45
1h1r
C          1.87850       28.85350        6.75720
C         -1.35420       31.62980        7.75500
C         -0.36120       26.16790        8.78950
C         -1.17850       25.54650        9.93520
C         -0.95650       24.01430        9.99750
C         -1.73680       23.36860       11.15820
C         -1.39970       24.02890       12.51150
C         -1.62610       25.55420       12.46670
C         -0.85140       26.20850       11.30290
C          5.24320       25.51280        5.58860
C          5.17810       24.80710        6.79880
C          4.40190       25.31030        7.85570
C          3.69100       26.51190        7.69060
N          1.15650       27.97440        7.41010
C          0.01080       28.40140        7.92010
O         -0.74360       27.54430        8.67060
C         -0.39220       29.72110        7.74630
N         -1.53390       30.38780        8.21080
N         -0.16000       31.73140        7.05010
C          0.43630       30.52650        7.04090
N          1.58960       30.12560        6.51920
N          3.06200       28.42990        6.24710
C          3.74450       27.21830        6.47230
C          4.54390       26.71920        5.43610
H         -2.03800       32.45870        7.88120
H         -0.55750       25.63690        7.85000
H          0.70580       26.07170        9.02490
H         -2.23910       25.72330        9.72150
H          0.11150       23.80040       10.12100
H         -1.26840       23.55570        9.05200
H         -1.51930       22.29510       11.20250
H         -2.80970       23.47690       10.96140
H         -0.35260       23.82480       12.76350
H         -2.01440       23.58670       13.30410
H         -1.31270       26.00250       13.41670
H         -2.69690       25.75850       12.35080
H         -1.08890       27.27810       11.26980
H          0.22390       26.12760       11.49990
Cl         6.18380       24.87190        4.25100
H          5.72420       23.87490        6.91000
H          4.33910       24.77100        8.79620
H          3.09560       26.88880        8.51680
H          0.16360       32.55280        6.56060
H          3.47310       29.08870        5.59820
H          4.61020       27.26340        4.49870
