54
32
C          1.59940       29.02960        6.56020
C         -1.39050       31.94080        7.86100
C         -0.75980       26.37460        8.51100
C         -1.47190       25.77190        9.73900
C         -1.32700       24.22790        9.75770
C         -2.00980       23.60030       10.98580
C         -1.49370       24.21110       12.30450
C         -1.64950       25.74460       12.30620
C         -0.97190       26.39120       11.07670
C          5.17970       25.80520        5.67550
C          5.00060       25.09020        6.87840
C          4.05270       25.54440        7.80270
C          3.32090       26.70620        7.54750
N          0.82200       28.15580        7.15500
C         -0.27080       28.62420        7.74200
O         -1.05830       27.77410        8.46790
C         -0.56970       29.97770        7.69090
N         -1.64630       30.68750        8.24030
N         -0.21620       32.00550        7.12080
C          0.29880       30.77050        7.02110
N          1.40570       30.33090        6.43450
N          2.76070       28.57360        6.03830
C          3.47000       27.40370        6.34560
C          4.41330       26.95160        5.42480
H         -2.01060       32.80500        8.05930
H         -1.09550       25.88430        7.58900
H          0.31960       26.20970        8.61490
H         -2.53890       26.00620        9.64780
H         -0.26660       23.95030        9.77040
H         -1.76130       23.80370        8.84500
H         -1.84990       22.51580       10.98780
H         -3.08940       23.77410       10.90790
H         -0.43780       23.94990       12.44080
H         -2.04400       23.78290       13.15040
H         -1.22490       26.15970       13.22760
H         -2.71750       25.99150       12.30120
H         -1.16870       27.46950       11.08710
H          0.11360       26.26430       11.16090
H          2.64020       27.08570        8.30370
H          0.12550       32.82170        6.63500
H          3.23690       29.25030        5.45560
H          4.57100       27.50640        4.50460
S          6.05540       23.69220        7.17810
O          7.13870       24.10840        8.05250
O          6.31350       22.97420        5.93880
H          4.28090       23.16110        8.07740
N          5.17780       22.67810        8.10040
H          5.51650       23.00620        9.00370
O          3.83230       24.82220        8.93910
C          2.57390       24.82850        9.63120
H          2.59530       24.11390       10.46320
H          2.35760       25.81840       10.05140
H          1.76740       24.53790        8.94680
H          5.91230       25.48850        4.93900
