45
1h1q
C          1.83310       28.87990        6.76170
C         -1.37850       31.66790        7.80080
C         -0.42400       26.18240        8.75520
C         -1.20610       25.54330        9.91610
C         -1.01770       24.00580        9.91220
C         -1.75280       23.33440       11.08750
C         -1.33390       23.93560       12.44560
C         -1.52650       25.46630       12.46780
C         -0.79890       26.14780       11.28880
C          5.33350       25.61850        5.68400
C          5.23080       24.90000        6.88480
C          4.39050       25.37030        7.90690
C          3.64620       26.54740        7.71830
N          1.10400       27.99970        7.40530
C         -0.03290       28.42950        7.93050
O         -0.78640       27.56790        8.67970
C         -0.42620       29.75470        7.77390
N         -1.56090       30.42440        8.25190
N         -0.18860       31.76810        7.08760
C          0.40290       30.56060        7.06810
N          1.55070       30.15680        6.53480
N          3.01950       28.45680        6.25540
C          3.72510       27.26190        6.50610
C          4.59130       26.79770        5.50600
H         -2.05760       32.49940        7.93560
H         -0.66330       25.67720        7.81150
H          0.64930       26.06170        8.94650
H         -2.27090       25.75100        9.75930
H          0.05020       23.76550        9.97260
H         -1.38820       23.58960        8.96820
H         -1.55950       22.25540       11.08080
H         -2.83130       23.47470       10.95050
H         -0.28090       23.69890       12.63730
H         -1.91950       23.47710       13.25090
H         -1.15140       25.87130       13.41490
H         -2.59670       25.69880       12.42030
H         -1.01450       27.22240       11.30600
H          0.28300       26.03830       11.42720
H          5.99140       25.26950        4.89360
H          5.80990       23.99140        7.02100
H          4.30930       24.82730        8.84390
H          3.01030       26.89810        8.52580
H          0.13220       32.58780        6.59330
H          3.43530       29.11670        5.61060
H          4.68310       27.35310        4.57730
