46
1oi9
C          1.83880       28.90530        6.77490
C         -1.42450       31.63890        7.79510
C         -0.36560       26.18430        8.80350
C         -1.16880       25.54310        9.94900
C         -0.94950       24.00970        9.97800
C         -1.71710       23.34380       11.13580
C         -1.36260       23.97470       12.49860
C         -1.58140       25.50190       12.48700
C         -0.82110       26.17660       11.32490
C          5.24920       25.62900        5.50230
C          5.17490       24.87780        6.68110
C          4.39610       25.33390        7.75200
C          3.67050       26.53390        7.63360
N          1.13090       28.01600        7.43070
C         -0.01520       28.42860        7.95040
O         -0.75640       27.55990        8.70260
C         -0.43430       29.74470        7.78300
N         -1.58340       30.39480        8.25320
N         -0.23320       31.75940        7.08660
C          0.38020       30.56260        7.07430
N          1.53370       30.17570        6.54160
N          3.02500       28.49960        6.25250
C          3.71810       27.28400        6.44050
C          4.53290       26.83230        5.39150
H         -2.12200       32.45610        7.92300
H         -0.57080       25.66490        7.85940
H          0.70450       26.08890        9.02470
H         -2.23190       25.72550        9.75340
H          0.11950       23.79160       10.08420
H         -1.27440       23.57050        9.02760
H         -1.50470       22.26860       11.15510
H         -2.79170       23.46250       10.95460
H         -0.31370       23.76080       12.73480
H         -1.97170       23.51920       13.28800
H         -1.25020       25.92920       13.44070
H         -2.65280       25.71370       12.39250
H         -1.05380       27.24780       11.31560
H          0.25640       26.08590       11.50490
H          5.86480       25.29580        4.67200
O          5.87390       23.71150        6.79780
H          4.34900       24.76230        8.67410
H          3.07510       26.87520        8.47520
H          0.08060       32.58450        6.59690
H          3.41640       29.16630        5.59940
H          4.60280       27.41640        4.47870
H          6.38730       23.55640        5.98650
