49
21
C          1.82700       28.88550        6.69860
C         -1.31460       31.72690        7.80550
C         -0.53440       26.20480        8.62770
C         -1.25490       25.58170        9.83670
C         -1.17230       24.03490        9.78730
C         -1.86250       23.38660       11.00150
C         -1.30950       23.92650       12.33680
C         -1.39080       25.46570       12.40070
C         -0.69960       26.12080       11.18510
C          4.23230       25.13790        7.42970
C          5.14220       24.82530        6.41350
C          5.32910       25.71110        5.34430
C          4.59850       26.90710        5.29710
N          1.08150       28.00910        7.33240
C         -0.04350       28.45820        7.87250
O         -0.81470       27.60840        8.61670
C         -0.40600       29.79350        7.74150
N         -1.52140       30.48110        8.23890
N         -0.13000       31.81040        7.08310
C          0.43510       30.59150        7.04350
N          1.57070       30.17200        6.49970
N          3.00440       28.46430        6.16880
C          3.68380       27.23820        6.30430
C          3.53110       26.36020        7.39390
H         -1.97550       32.57070        7.95360
H         -0.88030       25.74390        7.69440
H          0.54160       26.01830        8.73050
H         -2.31250       25.86320        9.77540
H         -0.12300       23.71850        9.76590
H         -1.63960       23.66790        8.86610
H         -1.74130       22.29780       10.96130
H         -2.93600       23.60170       10.94600
H         -0.26510       23.61330       12.45050
H         -1.86990       23.49160       13.17250
H         -0.92540       25.82130       13.32730
H         -2.44300       25.77190       12.42990
H         -0.82980       27.20790       11.23910
H          0.37750       25.92480       11.24130
O          4.03130       24.20180        8.41870
H          5.69480       23.89090        6.44380
H          6.03250       25.47170        4.55220
H          4.74630       27.58520        4.46180
H          0.19790       32.62730        6.58890
H          3.42070       29.15350        5.55580
H          2.86930       26.63150        8.21110
C          2.90660       24.27910        9.31050
H          1.96950       24.30540        8.74100
H          2.87270       23.40030        9.96600
H          2.96090       25.17660        9.93880
