49
22
C          1.67890       29.05350        6.67860
C         -1.44050       31.85260        7.93990
C         -0.62900       26.31580        8.59970
C         -1.34690       25.64440        9.78560
C         -1.27500       24.09990        9.66880
C         -1.95890       23.40030       10.85810
C         -1.40090       23.88250       12.21270
C         -1.47900       25.41730       12.34090
C         -0.78690       26.12210       11.15480
C          5.11250       25.87640        5.21660
C          5.08390       25.08970        6.37390
C          4.29270       25.47800        7.46540
C          3.52490       26.65580        7.39200
N          0.96770       28.15790        7.32590
C         -0.14120       28.59180        7.91350
O         -0.89010       27.72210        8.65800
C         -0.51390       29.92900        7.82460
N         -1.61980       30.59950        8.36670
N         -0.27700       31.95660        7.18480
C          0.29800       30.74490        7.11390
N          1.41100       30.34090        6.51600
N          2.82550       28.64390        6.08180
C          3.53500       27.43830        6.22400
C          4.35110       27.04970        5.15620
H         -2.10840       32.68600        8.11330
H         -0.99040       25.90460        7.64920
H          0.44590       26.11110        8.67580
H         -2.40370       25.93240        9.74110
H         -0.23040       23.77130        9.62040
H         -1.75660       23.78190        8.73680
H         -1.83550       22.31410       10.77680
H         -3.03280       23.61570       10.81260
H         -0.35720       23.56180       12.30980
H         -1.95890       23.41280       13.03100
H         -1.01020       25.73320       13.28010
H         -2.53030       25.72480       12.38370
H         -0.91170       27.20620       11.25930
H          0.28940       25.91960       11.20090
H          5.68500       24.18660        6.42390
S          4.32120       24.46900        8.93620
H          2.94140       26.98010        8.24870
H          0.02860       32.77710        6.68220
H          3.21510       29.32910        5.44710
H          4.40000       27.67050        4.26650
H          5.73690       25.59130        4.37500
C          2.63700       24.64820        9.66210
H          2.46210       25.68820        9.96380
H          2.54700       24.00670       10.54720
H          1.88790       24.33780        8.92330
