49
26
C          1.81260       28.90540        6.75970
C         -1.43770       31.64040        7.80850
C         -0.38110       26.18080        8.79600
C         -1.18470       25.53760        9.94100
C         -0.95710       24.00530        9.97520
C         -1.72220       23.33710       11.13400
C         -1.37410       23.97470       12.49520
C         -1.60540       25.49970       12.47900
C         -0.84560       26.17660       11.31730
C          4.45420       25.40470        7.77980
C          5.27470       24.96670        6.73180
C          5.31860       25.70410        5.53440
C          4.54920       26.86940        5.39910
N          1.10880       28.01410        7.41660
C         -0.03190       28.42770        7.94760
O         -0.77160       27.55730        8.69930
C         -0.44970       29.74520        7.78770
N         -1.59540       30.39580        8.26630
N         -0.24970       31.76060        7.09400
C          0.36110       30.56340        7.07580
N          1.50870       30.17650        6.53330
N          2.99120       28.50000        6.22200
C          3.71080       27.30500        6.43240
C          3.67600       26.56810        7.63310
H         -2.13410       32.45810        7.93980
H         -0.58510       25.66290        7.85080
H          0.68900       26.08590        9.01750
H         -2.24820       25.71390        9.74180
H          0.11300       23.79300       10.08300
H         -1.27840       23.56190        9.02560
H         -1.50080       22.26370       11.15750
H         -2.79760       23.44590       10.95110
H         -0.32420       23.76940       12.73430
H         -1.98050       23.51660       13.28520
H         -1.28160       25.93230       13.43280
H         -2.67800       25.70310       12.38010
H         -1.08620       27.24600       11.30490
H          0.23200       26.09500       11.50100
H          4.42730       24.85110        8.71370
O          6.04580       23.84370        6.93210
H          5.95390       25.40450        4.70610
H          4.60570       27.44320        4.47880
H          0.06150       32.58550        6.60220
H          3.38130       29.17000        5.57160
H          3.05900       26.89680        8.46410
C          7.00230       23.40350        5.95510
H          7.54520       22.52240        6.31860
H          6.50140       23.13310        5.01740
H          7.73450       24.19390        5.74920
