53
28
C          1.61400       28.97590        6.55430
C         -1.45390       31.80050        7.84480
C         -0.48440       26.29160        8.70060
C         -1.24550       25.63960        9.87120
C         -0.95060       24.11950        9.94210
C         -1.67670       23.44530       11.12180
C         -1.34990       24.13230       12.46380
C         -1.64880       25.64500       12.41150
C         -0.92350       26.32490       11.22880
C          4.90230       25.52040        5.77640
C          4.92060       25.08960        7.11990
C          4.24680       25.83550        8.10470
C          3.51850       26.96580        7.73120
N          0.89980       28.09390        7.21080
C         -0.18600       28.53130        7.82350
O         -0.90720       27.65960        8.59060
C         -0.54730       29.86990        7.73320
N         -1.64170       30.55250        8.28050
N         -0.29190       31.89290        7.08800
C          0.26890       30.67650        7.01120
N          1.37090       30.26460        6.39540
N          2.75830       28.51930        6.00360
C          3.47410       27.38420        6.39600
C          4.19080       26.67690        5.43220
H         -2.11560       32.63970        8.01410
H         -0.69250       25.75480        7.76690
H          0.59250       26.22750        8.89880
H         -2.31790       25.76370        9.68040
H          0.12860       23.95890       10.04800
H         -1.25400       23.63690        9.00570
H         -1.40440       22.38460       11.17140
H         -2.75750       23.49500       10.94570
H         -0.28980       23.98190       12.69890
H         -1.92810       23.66840       13.27130
H         -1.34290       26.11540       13.35320
H         -2.72990       25.79660       12.31140
H         -1.20610       27.38350       11.19450
H          0.15750       26.28920       11.40720
H          5.44380       24.98090        5.00500
H          4.26240       25.53190        9.14730
H          2.97680       27.52150        8.49090
H          0.02790       32.71260        6.59310
H          3.23350       29.17480        5.39650
H          4.18170       27.01850        4.40130
S          5.88780       23.68910        7.59160
O          6.76090       24.12020        8.66450
O          6.37960       22.94350        6.44470
H          4.90450       23.04670        9.31580
N          4.82030       22.69630        8.36270
C          3.41480       22.73350        7.90560
H          2.83890       21.96480        8.43540
H          2.92980       23.69730        8.10370
H          3.34920       22.52540        6.83060
