49
20
C          1.76790       28.97180        6.55790
C         -1.39020       31.74210        7.77980
C         -0.41520       26.24150        8.59730
C         -1.19170       25.59240        9.75700
C         -0.96970       24.05930        9.77600
C         -1.72280       23.38810       10.94100
C         -1.35020       24.01410       12.30190
C         -1.56630       25.54240       12.30030
C         -0.82020       26.21980       11.12980
C          4.25490       25.41920        7.61170
C          5.06840       24.93880        6.57010
C          5.18440       25.67240        5.37930
C          4.47550       26.87470        5.22330
N          1.04700       28.07550        7.19080
C         -0.06690       28.49610        7.76770
O         -0.80090       27.62040        8.51990
C         -0.45210       29.82730        7.66600
N         -1.56980       30.48620        8.19400
N         -0.21580       31.85950        7.04410
C          0.36680       30.65110        6.96960
N          1.49630       30.25880        6.39100
N          2.94080       28.55370        6.01540
C          3.63810       27.35020        6.23970
C          3.56390       26.63160        7.44630
H         -2.06490       32.57010        7.95260
H         -0.64600       25.73280        7.65330
H          0.65970       26.13950        8.79030
H         -2.25900       25.77280        9.58390
H          0.10080       23.84170        9.86670
H         -1.30580       23.62440        8.82750
H         -1.50950       22.31300       10.95440
H         -2.80000       23.50550       10.77460
H         -0.29870       23.79770       12.52380
H         -1.94860       23.55640       13.09820
H         -2.63820       25.75780       12.22170
H         -1.22150       25.96450       13.25140
H         -1.05000       27.29160       11.12890
H          0.25960       26.12520       11.29370
H          5.61140       24.00530        6.68430
H          5.82240       25.31240        4.57740
H          4.57050       27.43820        4.29980
H          0.09810       32.69000        6.56370
H          3.35580       29.21960        5.37630
H          2.96120       27.00800        8.26760
C          4.12100       24.66070        8.91650
H          3.43440       25.20320        9.57780
O          3.63560       23.33410        8.70010
H          5.10230       24.62940        9.40560
H          3.30500       23.02310        9.56020
