51
30
C          1.60130       29.08340        6.58720
C         -1.51330       31.85410        7.88470
C         -0.52610       26.33580        8.62250
C         -1.28350       25.66020        9.77900
C         -1.01150       24.13470        9.78980
C         -1.73130       23.43170       10.95680
C         -1.36900       24.06280       12.31840
C         -1.64070       25.58180       12.32380
C         -0.92790       26.29240       11.15330
C          5.05360       25.77740        5.71430
C          4.96970       25.19520        6.99250
C          4.18190       25.79490        7.99010
C          3.45630       26.94940        7.68960
N          0.88290       28.18020        7.20580
C         -0.21750       28.59750        7.80770
O         -0.93650       27.70890        8.55740
C         -0.59030       29.93410        7.73870
N         -1.69650       30.59470        8.28780
N         -0.34640       31.97210        7.13810
C          0.22820       30.76340        7.04770
N          1.34730       30.37280        6.44890
N          2.77010       28.66020        6.06100
C          3.50070       27.51650        6.40820
C          4.32790       26.94410        5.44120
H         -2.18250       32.68380        8.07020
H         -0.75060       25.83050        7.67520
H          0.55130       26.25010        8.80940
H         -2.35600       25.80850        9.60720
H          0.06630       23.95250        9.87290
H         -1.34000       23.69240        8.84210
H         -1.48110       22.36450       10.96020
H         -2.81310       23.51350       10.79930
H         -0.30890       23.88290       12.53180
H         -1.94700       23.58170       13.11600
H         -1.30490       26.01340       13.27380
H         -2.72040       25.75740       12.25180
H         -1.19760       27.35490       11.15910
H          0.15540       26.23690       11.31150
H          5.67200       25.34030        4.93590
H          4.11680       25.36920        8.98710
H          2.84390       27.39470        8.46820
H         -0.03590       32.79860        6.64870
H          3.20240       29.31090        5.41780
H          4.39150       27.39600        4.45580
S          5.84580       23.69390        7.37330
O          6.55480       23.92670        8.62870
O          6.54600       23.21290        6.18100
H          3.80720       22.62050        6.90550
H          4.06500       22.88670        8.67300
C          4.52680       22.56490        7.73150
H          4.94590       21.55570        7.82690
