50
31
C          1.83320       28.95170        6.71210
C         -1.39750       31.68730        7.80060
C         -0.35250       26.21270        8.74040
C         -1.17610       25.56380        9.86910
C         -0.94180       24.03190        9.91920
C         -1.74580       23.37000       11.05570
C         -1.43740       24.01280       12.42400
C         -1.67240       25.53710       12.39190
C         -0.87940       26.21120       11.25080
C          5.35410       25.81670        5.42840
C          5.23510       24.99610        6.55930
C          4.38690       25.37230        7.61400
C          3.64740       26.56290        7.51880
N          1.12510       28.05160        7.35050
C         -0.01550       28.46050        7.88550
O         -0.75320       27.58500        8.63340
C         -0.42670       29.78220        7.74400
N         -1.56390       30.43620        8.23810
N         -0.21640       31.80520        7.07630
C          0.38660       30.60600        7.04270
N          1.53640       30.22520        6.50290
N          3.02080       28.56700        6.19400
C          3.72970       27.36850        6.36760
C          4.60400       26.99540        5.34250
H         -2.08130       32.51220        7.95110
H         -0.53280       25.69300        7.79140
H          0.71420       26.12900        8.98170
H         -2.23530       25.73080        9.64150
H          0.12440       23.82460       10.06710
H         -1.22810       23.58000        8.96240
H         -1.53170       22.29550       11.09160
H         -2.81460       23.48210       10.83930
H         -0.39400       23.81110       12.69270
H         -2.06420       23.55700       13.19930
H         -1.38140       25.97550       13.35360
H         -2.74210       25.73530       12.25790
H         -1.12420       27.27940       11.22540
H          0.19250       26.13440       11.46720
H          6.03770       25.55220        4.62710
H          4.30730       24.75880        8.50660
H          3.01490       26.85450        8.35210
H          0.09340       32.62930        6.58240
H          3.41450       29.25000        5.55950
H          4.70910       27.62830        4.46630
S          6.20680       23.45930        6.66500
O          7.65020       23.81040        6.36440
H          5.69570       23.24280        4.29160
H          4.41820       22.49870        5.32110
C          5.49820       22.62130        5.17350
H          5.98570       21.64490        5.06260
