50
1oiu
C          1.94520       28.91330        6.71300
C         -1.31210       31.63320        7.78170
C         -0.22260       26.18720        8.78310
C         -1.06610       25.54040        9.89570
C         -0.88560       24.00210        9.90240
C         -1.70860       23.33750       11.02300
C         -1.38030       23.93580       12.40770
C         -1.55890       25.46850       12.41710
C         -0.74390       26.14190       11.29190
C          5.00050       25.46970        5.15030
C          5.09490       24.77600        6.37680
C          4.52020       25.33040        7.53240
C          3.84790       26.56300        7.46900
N          1.26730       28.02180        7.39560
C          0.12590       28.43190        7.93360
O         -0.60290       27.56500        8.69670
C         -0.30780       29.74400        7.76540
N         -1.45300       30.39100        8.25200
N         -0.13640       31.75480        7.04900
C          0.48560       30.56270        7.03660
N          1.62820       30.17900        6.48200
N          3.10140       28.50510        6.13690
C          3.75870       27.26510        6.25600
C          4.35630       26.72530        5.11130
H         -2.01190       32.44770        7.91420
H         -0.41140       25.68450        7.82660
H          0.84190       26.08210        9.02600
H         -2.11900       25.75120        9.67480
H          0.17370       23.75520       10.03920
H         -1.19060       23.58840        8.93420
H         -1.52410       22.25700       11.03070
H         -2.77360       23.48690       10.81050
H         -0.34520       23.69040       12.67220
H         -2.02470       23.48300       13.17020
H         -1.24750       25.87030       13.38830
H         -2.62080       25.71100       12.29320
H         -0.94810       27.21890       11.29450
H          0.32480       26.01910       11.50280
H          5.57650       23.80430        6.43300
H          4.56790       24.79420        8.47550
H          3.38860       26.97180        8.36420
H          0.15880       32.57740        6.54370
H          3.46530       29.17680        5.47320
H          4.27850       27.27250        4.17650
S          5.57480       24.72390        3.62850
O          4.72380       25.11000        2.50850
O          6.00600       23.35610        3.87870
H          7.02040       26.08050        4.22460
N          6.97580       25.50510        3.38480
H          7.54330       24.68550        3.59590
