56
29
C          1.65090       29.06920        6.66680
C         -1.49120       31.85060        7.88810
C         -0.53320       26.34470        8.68750
C         -1.28290       25.68950        9.86000
C         -1.05840       24.15620        9.85380
C         -1.76280       23.46870       11.03860
C         -1.34270       24.08220       12.38980
C         -1.57310       25.60770       12.41480
C         -0.87360       26.30460       11.22730
C          4.07130       25.49180        7.71470
C          4.95410       25.05370        6.71120
C          5.15790       25.84010        5.55980
C          4.42950       27.02580        5.40160
N          0.92010       28.17640        7.28740
C         -0.19030       28.59920        7.86760
O         -0.92360       27.72280        8.61800
C         -0.56490       29.93210        7.77370
N         -1.67760       30.59660        8.30410
N         -0.31640       31.96170        7.15320
C          0.25960       30.75210        7.07970
N          1.39010       30.35690        6.50520
N          2.82950       28.65280        6.14560
C          3.52630       27.45500        6.37810
C          3.39060       26.69880        7.55210
H         -2.16240       32.68220        8.05760
H         -0.77780       25.83480        7.74760
H          0.54510       26.24490        8.86190
H         -2.35460       25.87130        9.71800
H          0.01520       23.93970        9.90080
H         -1.43000       23.73060        8.91440
H         -1.54390       22.39470       11.03080
H         -2.84580       23.58300       10.91310
H         -0.28100       23.87420       12.56630
H         -1.90350       23.60830       13.20380
H         -1.20000       26.02070       13.35920
H         -2.64940       25.81220       12.37660
H         -1.11240       27.37430       11.24650
H          0.21150       26.21870       11.35690
H          3.92280       24.91930        8.62550
H          5.86640       25.53710        4.79460
H          4.57480       27.62110        4.50510
H         -0.00010       32.78540        6.66280
H          3.25450       29.31930        5.51380
H          2.74950       27.03350        8.36220
S          5.87900       23.58110        6.98620
O          5.33620       22.83740        8.10610
O          7.28330       23.92830        6.92110
N          5.57940       22.63060        5.65090
C          4.26190       22.77610        5.02100
H          4.09860       21.96530        4.30060
H          3.45800       22.73030        5.76580
H          4.18800       23.72280        4.47190
C          6.67920       22.53530        4.66820
H          6.40670       21.83670        3.86760
H          6.87920       23.51470        4.21670
H          7.59730       22.16530        5.14090
