49
1oiy
C          1.54030       29.09180        6.58240
C         -1.54700       31.88800        7.90040
C         -0.65200       26.34640        8.55840
C         -1.36540       25.68810        9.75270
C         -1.10460       24.16020        9.76550
C         -1.77650       23.47380       10.96970
C         -1.35480       24.11510       12.30810
C         -1.61790       25.63510       12.31160
C         -0.95000       26.33220       11.10590
C          5.07370       25.81470        5.77790
C          4.87520       25.13190        6.99180
C          3.99650       25.67820        7.94900
C          3.30290       26.86180        7.67270
N          0.79640       28.19190        7.17860
C         -0.30200       28.61520        7.77910
O         -1.03990       27.72650        8.51000
C         -0.65200       29.95720        7.73070
N         -1.75080       30.62670        8.28600
N         -0.37640       31.99800        7.15800
C          0.18210       30.78280        7.05430
N          1.30190       30.38650        6.46020
N          2.72890       28.66690        6.08980
C          3.44010       27.50310        6.42910
C          4.35580       26.98930        5.50410
H         -2.20410       32.72530        8.09510
H         -0.92310       25.84380        7.62190
H          0.43080       26.24300        8.70060
H         -2.44280       25.84410        9.62430
H         -0.02580       23.96860        9.79990
H         -1.48140       23.71370        8.83810
H         -1.53210       22.40530       10.97500
H         -2.86360       23.56040       10.85830
H         -0.28810       23.93010       12.48040
H         -1.90180       23.64420       13.13310
H         -1.24490       26.07110       13.24560
H         -2.69910       25.81370       12.28110
H         -1.21840       27.39510       11.11260
H          0.13890       26.27750       11.21990
H          5.77350       25.43010        5.04180
H          3.86390       25.21430        8.92190
H          2.65250       27.27000        8.44070
H         -0.05250       32.82530        6.67870
H          3.18210       29.32080        5.46430
H          4.50470       27.50060        4.55770
C          5.63170       23.87910        7.30120
O          6.75540       23.64750        6.89430
H          4.07030       23.25000        8.44100
N          5.01890       23.01490        8.17430
H          5.62620       22.69070        8.91740
