45
17
C          1.85870       28.87860        6.76240
C         -1.37910       31.64330        7.77600
C         -0.37200       26.17900        8.78840
C         -1.17400       25.54530        9.93900
C         -0.95460       24.01180        9.97720
C         -1.71870       23.35100       11.14060
C         -1.36080       23.99050       12.49860
C         -1.58230       25.51730       12.47810
C         -0.82340       26.18620       11.31110
C          5.20100       25.52700        5.57430
C          5.14440       24.82240        6.78580
C          4.38440       25.33390        7.85100
C          3.67630       26.53830        7.69080
N          1.14290       27.99710        7.41890
C         -0.00110       28.42000        7.93600
O         -0.74970       27.55840        8.68870
C         -0.40750       29.73940        7.76630
N         -1.55010       30.40140        8.23540
N         -0.18690       31.75090        7.06760
C          0.41500       30.54840        7.05670
N          1.56610       30.15020        6.52660
N          3.04150       28.45690        6.25030
C          3.72170       27.24290        6.47080
C          4.50980       26.73900        5.42820
H         -2.06810       32.46810        7.90160
H         -0.58550       25.66020        7.84580
H          0.69840       26.07430        9.00430
H         -2.23710       25.72800        9.74400
H          0.11480       23.79510       10.08250
H         -1.28070       23.56680        9.03000
H         -1.50270       22.27660       11.16590
H         -2.79420       23.46390       10.96140
H         -0.31120       23.77910       12.73380
H         -1.96690       23.53930       13.29280
H         -1.25050       25.95130       13.42850
H         -2.65400       25.72780       12.38410
H         -1.05620       27.25730       11.29710
H          0.25450       26.09720       11.48980
Br         6.20140       24.82300        4.10780
H          5.68550       23.88700        6.89340
H          4.33070       24.79740        8.79370
H          3.09040       26.91910        8.52220
H          0.13210       32.57270        6.57560
H          3.45000       29.11410        5.59800
H          4.56900       27.28240        4.48970
