47
2t
C         26.87850        8.90130       30.41560
C         28.26940        9.52870       30.64740
C         28.62360        8.13060       32.62340
C         27.23900        7.47380       32.44290
C         16.04360       10.45980       31.76860
O         29.09320        8.56310       31.32990
C         21.44690       12.42370       31.37680
C         17.34480       10.98710       31.81200
C         23.82280        8.38550       31.25700
C         26.25890        8.40620       31.72750
C         21.55180        9.62900       30.81370
C         20.27480       10.31130       30.61380
C         15.22380       10.72160       30.66030
C         15.69060       11.52020       29.60650
C         16.98630       12.06850       29.65820
C         22.66780       10.29510       31.28170
C         21.71270        8.27190       30.53890
C         20.24670       11.65910       30.92940
C         17.81720       11.79240       30.75400
C         23.86430       12.40120       31.99160
F         18.13580       10.70450       32.86790
F         13.99270       10.18340       30.59060
O         19.07010       12.35930       30.77410
N         22.86140        7.63490       30.77530
O         21.41550       13.62510       31.60050
N         22.62810       11.68260       31.54130
N         23.79930        9.66760       31.51340
N         24.98350        7.73730       31.49110
H         15.05230       11.70910       28.74840
H         17.35420       12.69440       28.85050
H         15.68320        9.83370       32.57940
H         19.39780        9.79900       30.23550
H         20.89410        7.67370       30.14290
H         26.96850        8.06040       29.71810
H         26.21610        9.64040       29.95020
H         28.17370       10.44420       31.24390
H         28.71770        9.79970       29.68370
H         29.31920        7.40280       33.05870
H         28.54830        8.98180       33.31110
H         26.82860        7.19180       33.41940
H         27.36190        6.55170       31.86300
H         26.10400        9.27320       32.38140
H         24.98080        6.76450       31.21250
C         23.95810       12.58660       33.44620
N         24.03590       12.76150       34.59380
H         23.90800       13.38910       31.51700
H         24.76750       11.87590       31.65770
