53
2n
C         26.72560        8.90070       30.38060
C         28.10570        9.56110       30.57780
C         28.50570        8.23450       32.59380
C         27.12920        7.55330       32.45230
C         15.87140       10.38890       31.69850
O         28.95280        8.63130       31.28120
C         21.22850       12.37430       31.39370
C         17.16720       10.92810       31.73340
C         23.68900        8.38140       31.28110
C         26.12700        8.44500       31.71620
C         21.40840        9.58980       30.79090
C         20.12940       10.25220       30.55330
C         15.06240       10.59900       30.57180
C         15.53520       11.35330       29.48940
C         16.82270       11.92060       29.53400
C         22.48520       10.26250       31.33290
C         21.61090        8.24690       30.47940
C         20.06240       11.59160       30.89010
C         17.64320       11.69710       30.64960
C         23.59370       12.35060       32.19290
F         17.95050       10.68850       32.80580
F         13.83660       10.04850       30.50950
O         18.88940       12.27640       30.66360
N         22.76230        7.62630       30.74180
O         21.15880       13.57700       31.60530
N         22.40650       11.64330       31.63100
N         23.62520        9.65230       31.58200
N         24.86010        7.75000       31.51660
H         14.90740       11.49270       28.61430
H         17.19280       12.51760       28.70580
H         15.51180        9.79040       32.53030
H         19.28130        9.73260       30.12280
H         20.82310        7.64860       30.02540
H         26.82610        8.03680       29.71340
H         26.04500        9.60780       29.89230
H         27.99850       10.49300       31.14640
H         28.53880        9.80840       29.60080
H         29.21650        7.53020       33.04320
H         28.42540        9.10650       33.25440
H         26.73360        7.29940       33.44260
H         27.25900        6.61240       31.90500
H         25.96690        9.33270       32.34030
H         23.27720       13.25290       32.73040
H         24.08380       11.70500       32.93190
H         24.87400        6.78070       31.22630
C         24.61290       12.73110       31.09960
H         24.98970       11.81040       30.63930
H         24.10530       13.29180       30.30610
C         25.81620       13.54760       31.61340
H         26.58950       13.55200       30.83550
H         26.24490       13.06570       32.50070
O         25.41880       14.89390       31.89950
H         24.95490       14.90350       32.75420
