49
3flw
C         15.93070       10.41160       31.71790
C         21.33970       12.30180       31.39830
C         17.23270       10.93570       31.76160
C         23.68320        8.24890       31.30430
C         26.12850        8.24610       31.80120
C         21.43240        9.51060       30.82590
C         20.16840       10.20390       30.59620
C         15.12590       10.64300       30.59220
C         15.60920       11.40670       29.51990
C         16.90570       11.95490       29.57130
C         22.53060       10.15810       31.34560
C         21.60210        8.16340       30.51840
C         20.14170       11.54900       30.91910
C         17.72280       11.70770       30.68540
C         23.70770       12.21140       32.18550
F         18.00890       10.67850       32.83500
F         13.89330       10.10640       30.52320
O         18.98220       12.26150       30.70360
N         22.73890        7.51550       30.77820
O         21.31920       13.51120       31.58920
N         22.49130       11.53480       31.64370
N         23.66800        9.52980       31.55910
N         24.85420        7.60700       31.48100
H         14.98340       11.56740       28.64700
H         17.28470       12.55540       28.74960
H         15.56140        9.80950       32.54280
H         19.30210        9.70250       30.18070
H         20.79540        7.58240       30.07510
H         25.95970        9.21680       32.28330
H         24.28340       11.53060       32.82460
H         24.34400       12.53510       31.35280
H         23.43840       13.08580       32.79060
H         24.84330        6.62640       31.23140
C         26.94300        8.47970       30.51000
H         27.87240        9.00950       30.74950
H         27.22700        7.50460       30.09750
C         26.87060        7.37540       32.82850
H         26.18330        7.17930       33.65970
H         27.10650        6.40460       32.37740
C         26.21060        9.27200       29.40580
H         26.89370        9.43220       28.56270
H         25.36390        8.68170       29.03460
C         28.15980        8.01060       33.39060
H         27.92720        9.00770       33.78420
H         28.89810        8.13100       32.58840
O         25.75170       10.52320       29.91850
H         25.04780       10.31390       30.55620
O         28.69030        7.18310       34.43380
H         29.00250        6.35530       34.03010
