47
3flq
C         16.08510       10.49810       31.75440
C         21.44450       12.24460       31.46110
C         17.39620       11.00360       31.74760
C         23.66640        8.11670       31.46250
C         25.94340        7.88790       32.42180
C         21.51930        9.47080       30.81470
C         20.29340       10.20170       30.50820
C         15.24910       10.71950       30.64970
C         15.70680       11.46280       29.55220
C         17.01300       11.99060       29.55220
C         22.58850       10.06760       31.45300
C         21.67080        8.13090       30.47500
C         20.27760       11.53810       30.85590
C         17.86500       11.74650       30.64080
C         23.72620       12.08650       32.44460
F         18.19900       10.76000       32.80470
F         14.01130       10.19090       30.62550
O         19.13870       12.26870       30.59880
N         22.75430        7.43770       30.82140
O         21.43890       13.44730       31.68360
N         22.55180       11.44020       31.78750
N         23.66710        9.38180       31.78180
N         24.73120        7.37370       31.82680
H         15.05490       11.62050       28.69800
H         17.37340       12.57150       28.70840
H         15.73060        9.91560       32.59970
H         19.44220        9.73410       30.02720
H         20.89070        7.59150       29.94070
H         25.76790        8.87880       32.85820
H         23.39610       12.85480       33.15450
H         24.35740       12.55580       31.68010
H         24.32840       11.35930       33.00300
H         24.74680        6.45050       31.41240
C         26.36120        6.95410       33.55720
H         27.28400        7.29670       34.03960
H         25.56890        6.91740       34.31390
H         26.51870        5.93670       33.18070
C         26.98300        7.95640       31.31000
H         27.59410        7.04580       31.28620
H         26.50310        8.08730       30.33240
S         28.10200        9.33600       31.47730
O         28.40630        9.52700       32.89690
O         29.19120        9.12800       30.52660
C         27.15460       10.73680       30.92080
H         27.78550       11.62400       31.05560
H         26.24180       10.79480       31.52630
H         26.92200       10.57930       29.86050
