41
3fly
C         16.00690       10.45160       31.73800
C         21.38060       12.36180       31.40610
C         17.31010       10.97510       31.75990
C         23.76350        8.32490       31.29760
C         26.21390        8.31780       31.68910
C         21.50130        9.57290       30.81340
C         20.23660       10.25990       30.57320
C         15.17990       10.69300       30.63090
C         15.63910       11.46940       29.55820
C         16.93650       12.01560       29.58810
C         22.58980       10.22420       31.35900
C         21.67910        8.22720       30.49970
C         20.20180       11.60580       30.88810
C         17.77820       11.75660       30.68050
C         23.73990       12.26220       32.24220
F         18.10670       10.71070       32.81590
F         13.94980       10.15110       30.57770
O         19.03780       12.31060       30.67010
N         22.82090        7.58670       30.75820
O         21.34360       13.56760       31.60890
N         22.53190       11.60020       31.66810
N         23.72070        9.59540       31.60630
N         24.91750        7.66270       31.54000
H         14.99460       11.64100       28.70110
H         17.29870       12.62450       28.76500
H         15.65240        9.84100       32.56310
H         19.37580        9.75540       30.15020
H         20.88200        7.64120       30.04590
H         26.09500        9.27110       32.21860
H         24.06440       11.71710       33.13710
H         24.55210       12.23840       31.50540
H         23.55150       13.30480       32.52630
H         24.90160        6.69620       31.24020
C         27.14240        7.45430       32.54940
H         28.10030        7.96110       32.71410
H         26.68150        7.26200       33.52530
H         27.33910        6.49010       32.06630
C         26.82530        8.60970       30.31100
H         26.17030        9.27620       29.73800
H         27.80390        9.09340       30.41110
H         26.94780        7.67990       29.74340
