52
2ee
C         27.02020        8.38880       30.88650
C         28.39770        8.90770       31.34310
C         28.18280        7.51880       33.45560
C         26.79520        7.05560       32.98020
C         16.02160       10.46590       31.73660
N         29.05430        8.06140       32.37560
C         21.42800       12.29580       31.42460
C         17.32930       10.97750       31.76510
C         23.73420        8.21560       31.29260
C         26.10220        8.06190       32.06390
C         21.50870        9.51720       30.78140
C         20.25500       10.22700       30.54820
C         15.20720       10.70510       30.61970
C         15.68370       11.46880       29.54370
C         16.98670       12.00350       29.58070
C         22.60290       10.13870       31.35040
C         21.66830        8.17650       30.44140
C         20.23300       11.56300       30.90650
C         17.81500       11.74500       30.68370
C         23.79040       12.15020       32.24570
F         18.11340       10.71720       32.83250
F         13.97080       10.17640       30.56300
O         19.08000       12.28700       30.68940
N         22.79040        7.50930       30.71500
O         21.41270       13.50000       31.63960
N         22.56820       11.51230       31.67380
N         23.71380        9.48100       31.62130
N         24.84030        7.50030       31.59680
H         15.04760       11.63950       28.68020
H         17.36110       12.60250       28.75580
H         15.65360        9.86770       32.56490
H         19.39020        9.74300       30.10950
H         20.86750        7.61640       29.96200
H         27.15790        7.48360       30.28370
H         26.53930        9.13440       30.24270
H         28.27770        9.91510       31.76010
H         29.04950        8.99270       30.46500
H         28.66400        6.65920       33.93810
H         28.05820        8.30180       34.21350
H         26.15490        6.84840       33.84550
H         26.91950        6.10920       32.44130
H         25.92680        8.97840       32.64040
H         24.15030       11.56370       33.09990
H         24.57870       12.17200       31.48330
H         23.60130       13.17410       32.59080
H         24.83580        6.55500       31.23550
C         30.43450        8.26250       32.62730
O         31.08690        9.08610       32.00280
C         31.13270        7.36060       33.64160
H         30.86470        6.31790       33.43500
H         32.21940        7.50450       33.65320
H         30.70380        7.53600       34.63510
