64
2u
C         26.77530        8.88330       30.35000
C         28.15580        9.52530       30.60400
C         28.47870        8.14910       32.60080
C         27.10770        7.47340       32.39250
C         15.91840       10.37690       31.74650
O         28.97290        8.57300       31.31390
C         21.29470       12.37690       31.25890
C         17.21560       10.91390       31.76750
C         23.70590        8.35110       31.13790
C         26.13230        8.38880       31.65050
C         21.43930        9.58950       30.67190
C         20.15450       10.25320       30.48340
C         15.09540       10.59570       30.63100
C         15.55420       11.35650       29.54670
C         16.84300       11.92080       29.57870
C         22.55990       10.27580       31.09560
C         21.59650        8.22330       30.44110
C         20.10810       11.59260       30.81770
C         17.67610       11.68990       30.68340
F         18.01440       10.67120       32.82790
F         13.86770       10.04940       30.58090
O         18.91790       12.27560       30.69080
N         22.74360        7.58840       30.68480
O         21.19060       13.55540       31.55410
N         22.52120       11.67870       31.33260
N         23.68400        9.63970       31.34920
N         24.86810        7.70930       31.38900
H         14.91450       11.50450       28.68170
H         17.20370       12.52360       28.75040
H         15.56660        9.77690       32.58060
H         19.28090        9.72840       30.11460
H         20.76970        7.61600       30.07740
H         26.88420        8.04000       29.65820
H         26.11450        9.61300       29.86780
H         28.03920       10.44610       31.18850
H         28.62160        9.78840       29.64640
H         29.17320        7.43470       33.05960
H         28.37560        9.00670       33.27680
H         26.67890        7.18970       33.36070
H         27.25660        6.55050       31.82010
H         25.95270        9.25650       32.29710
H         24.63350       11.75130       31.47360
H         24.87080        6.72510       31.15360
C         25.23560       13.24140       33.60460
C         23.87690       12.65080       33.22530
C         23.78380       12.40150       31.71530
C         24.11270       13.68730       30.92510
C         25.46290       14.26900       31.35040
N         25.48930       14.45840       32.81490
H         26.02540       12.50030       33.43070
H         25.21360       13.46780       34.67760
H         23.70010       11.71510       33.76840
H         23.10450       13.37020       33.52130
H         23.37310       14.47230       31.12140
H         24.11210       13.48330       29.84810
H         26.27160       13.59870       31.03450
H         25.59290       15.22550       30.82940
S         26.72370       15.47440       33.40380
O         26.46700       15.61090       34.83130
O         26.73820       16.65930       32.55240
C         28.19290       14.53410       33.15960
H         28.09510       13.61820       33.75540
H         28.27380       14.31670       32.08760
H         29.02830       15.15100       33.51280
