46
3fmh
C         15.94310       10.43160       31.72130
C         21.34540       12.38350       31.41120
C         17.24060       10.96520       31.77900
C         23.72260        8.35160       31.23680
C         26.19520        8.39880       31.44310
C         21.44780        9.59230       30.80990
C         20.17710       10.28260       30.60550
C         15.13730       10.68310       30.60090
C         15.61460       11.47750       29.54910
C         16.90600       12.03530       29.61520
C         22.55040       10.24510       31.32410
C         21.62120        8.24590       30.49170
C         20.14690       11.62460       30.94150
C         17.72450       11.76790       30.72320
C         23.73650       12.28200       32.16060
F         18.01930       10.68660       32.84510
F         13.91080       10.13590       30.51600
O         18.97890       12.33190       30.75580
N         22.77210        7.60910       30.72240
O         21.31640       13.58860       31.61460
N         22.50620       11.62130       31.63060
N         23.68900        9.62070       31.53900
N         24.89880        7.70970       31.42020
H         14.98840       11.65460       28.67970
H         17.28080       12.65850       28.80860
H         15.57810        9.80580       32.53030
H         19.30790        9.77920       30.19830
H         20.81350        7.65990       30.05670
H         26.09340        9.35570       31.96960
H         24.09720       11.73590       33.04080
H         24.52030       12.25760       31.39350
H         23.55830       13.32460       32.45090
H         24.86860        6.73700       31.14260
C         26.64190        8.69280       29.99990
H         26.75400        7.75850       29.43760
H         25.89420        9.31040       29.48880
H         27.59380        9.23580       29.97650
C         27.22730        7.57360       32.23080
H         27.45830        6.65220       31.68230
H         26.77960        7.28770       33.19050
N         28.47810        8.29770       32.50080
N         29.58340        8.16640       31.73360
C         30.41150        9.00010       32.33360
N         29.83400        9.61200       33.42880
N         28.61490        9.16920       33.53140
H         31.42960        9.19460       32.02280
