46
2e
C         26.77080        8.83270       30.40120
C         28.15740        9.47300       30.61840
C         28.52950        8.10790       32.61290
C         27.14980        7.43920       32.44900
C         16.00880       10.51880       31.76640
O         28.98970        8.52120       31.30990
C         21.35840       12.38210       31.39100
C         17.31020       11.06150       31.76950
C         23.72170        8.33530       31.27340
C         26.16030        8.35550       31.72510
C         21.45610        9.58750       30.81080
C         20.19170       10.28290       30.58180
C         15.18240       10.70520       30.64680
C         15.63510       11.44320       29.54450
C         16.92430       12.00490       29.55800
C         22.55260       10.23600       31.34120
C         21.63080        8.24130       30.49260
C         20.16670       11.63040       30.89770
C         17.76080       11.80220       30.66200
C         23.73060       12.27130       32.19330
F         13.95920       10.14490       30.61090
O         19.01730       12.34820       30.64970
N         22.77520        7.59900       30.73940
O         21.33180       13.58870       31.58760
N         22.50720       11.61360       31.64570
N         23.68330        9.60610       31.57940
N         24.88350        7.68170       31.50540
H         14.99340       11.56920       28.67760
H         17.28380       12.58010       28.70980
H         15.65380        9.93650       32.61160
H         19.32650        9.78380       30.16100
H         20.82740        7.65940       30.04440
H         26.86170        7.98320       29.71440
H         26.10180        9.56090       29.92810
H         28.05620       10.39420       31.20530
H         28.60110        9.73670       29.65050
H         29.23290        7.39280       33.05680
H         28.44970        8.97050       33.28580
H         26.74590        7.16880       33.43160
H         27.27690        6.50880       31.88350
H         26.00940        9.23140       32.36790
H         23.54090       13.30130       32.51950
H         24.10090       11.70300       33.05540
H         24.51160       12.28120       31.42320
H         24.88750        6.71780       31.19720
H         17.96700       10.90410       32.61990
