48
2j
C         26.87900        8.82920       30.40590
C         28.26450        9.45350       30.67240
C         28.57630        8.03830       32.64340
C         27.19480        7.38600       32.42920
C         15.92890       10.42750       31.71470
O         29.07300        8.48030       31.36310
C         21.50450       12.41470       31.41010
C         17.19870       11.01120       31.81000
C         23.79470        8.34430       31.21750
C         26.23170        8.32610       31.70080
C         21.53380        9.63160       30.82390
C         20.27150       10.34190       30.66370
C         15.14330       10.65430       30.57790
C         15.62550       11.45340       29.53540
C         16.89080       12.05820       29.63530
C         22.66160       10.26490       31.29770
C         21.67150        8.27750       30.52080
C         20.26610       11.68920       30.97920
C         17.68520       11.84580       30.78130
C         23.91110       12.28080       32.08020
F         17.95510       10.75850       32.89680
F         13.93000       10.08180       30.47010
C         19.02490       12.56730       30.91630
N         22.81450        7.61690       30.73250
O         21.50660       13.61850       31.61800
N         22.65430       11.64010       31.58940
N         23.78940        9.61900       31.50310
N         24.95070        7.67430       31.43720
H         15.01660       11.60660       28.64930
H         17.24440       12.69150       28.82710
H         15.56710        9.78800       32.51440
H         19.37020        9.84570       30.32300
H         20.83790        7.70080       30.12400
H         26.98100        7.99480       29.70240
H         26.22690        9.57360       29.93440
H         28.15440       10.36200       31.27720
H         28.73230        9.73520       29.72110
H         29.26110        7.30550       33.08740
H         28.48700        8.88420       33.33610
H         26.76420        7.09800       33.39530
H         27.33020        6.46760       31.84630
H         26.07630        9.18930       32.35960
H         23.78310       13.34930       32.29250
H         24.69730       12.16540       31.32410
H         24.23860       11.78190       33.00050
H         24.93910        6.70060       31.16170
H         18.97370       13.17760       31.82550
H         19.14360       13.29010       30.10080
