49
2ff
C         26.42540        9.62040       30.27470
C         27.66330       10.50810       30.51360
C         28.65400        8.69310       32.01140
C         27.37170        7.84390       31.80590
C         15.79490       10.35750       31.67360
C         28.91090        9.65400       30.82410
C         21.14210       12.36060       31.46790
C         17.08900       10.89990       31.73220
C         23.69200        8.44530       31.21110
C         26.13840        8.71500       31.49560
C         21.36050        9.59030       30.80210
C         20.07300       10.24210       30.57470
C         15.00040       10.57780       30.53720
C         15.48650       11.34420       29.46870
C         16.77230       11.91180       29.53700
C         22.41270       10.26550       31.38240
C         21.61060        8.27080       30.42190
C         19.99170       11.57740       30.93280
C         17.57760       11.68050       30.66180
C         23.49730       12.31840       32.31520
F         17.85800       10.65260       32.81400
F         13.77530       10.02840       30.45330
O         18.82120       12.26190       30.69800
N         22.79230        7.68400       30.63470
O         21.06710       13.56080       31.68910
N         22.31000       11.62850       31.72900
N         23.57100        9.68800       31.59520
N         24.93050        7.90820       31.30640
H         14.87150       11.49210       28.58590
H         17.15130       12.51670       28.71860
H         15.42600        9.75110       32.49550
H         19.23670        9.72520       30.11860
H         20.84690        7.67230       29.92840
H         26.57760        8.99620       29.38640
H         25.56560       10.26740       30.06580
H         27.46210       11.18720       31.35030
H         27.83830       11.13770       29.63340
H         29.51610        8.02830       32.13930
H         28.55440        9.27320       32.93620
H         27.17750        7.24550       32.70360
H         27.53310        7.14270       30.97900
H         25.98240        9.36710       32.36370
H         23.91850       11.70930       33.12440
H         24.26370       12.44280       31.54030
H         23.24120       13.30250       32.72640
H         25.00290        6.94280       31.01170
H         29.13690        9.04860       29.93770
O         30.01130       10.50850       31.10490
H         30.18340       10.97650       30.27000
