50
2m
C         26.80820        8.83590       30.40630
C         28.18870        9.48410       30.63860
C         28.54110        8.12500       32.64190
C         27.16270        7.45550       32.46480
C         15.98250       10.42310       31.73950
O         29.01610        8.53730       31.34360
C         21.37880       12.39910       31.36860
C         17.28110       10.95500       31.78590
C         23.74570        8.34650       31.25190
C         26.18180        8.36720       31.72440
C         21.49080        9.61010       30.77160
C         20.21840       10.29420       30.56550
C         15.16560       10.68150       30.62830
C         15.63140       11.48190       29.57590
C         16.92400       12.03720       29.63230
C         22.59930       10.27110       31.26430
C         21.64920        8.25330       30.49370
C         20.18400       11.63400       30.90360
C         17.75400       11.76310       30.73020
F         18.06960       10.67510       32.84410
F         13.93790       10.13660       30.55360
O         19.00480       12.33340       30.75540
N         22.78900        7.60530       30.74520
O         21.32120       13.59550       31.61610
N         22.57190       11.66700       31.51440
N         23.72040        9.62550       31.51760
N         24.90700        7.69300       31.49460
H         14.99410       11.66820       28.71650
H         17.29020       12.66650       28.82650
H         15.62450        9.79560       32.55040
H         19.34660        9.78390       30.17280
H         20.83230        7.66620       30.07790
H         26.91220        7.97940       29.73000
H         26.14220        9.55540       29.91600
H         28.07480       10.40660       31.22090
H         28.64120        9.74530       29.67410
H         29.23890        7.41030       33.09510
H         28.45310        8.98850       33.31250
H         26.74850        7.19170       33.44490
H         27.29500        6.52180       31.90590
H         26.02490        9.24740       32.35980
H         23.89890       12.21010       33.03330
H         24.91440        6.72380       31.20360
C         23.80640       12.33980       31.95620
C         25.07860       12.32020       31.13950
C         24.33660       13.61500       31.33800
H         25.03620       11.85150       30.16020
H         26.01180       12.17310       31.67620
H         24.77150       14.35340       32.00600
H         23.81160       14.02830       30.48130
