48
2i
C         26.78800        8.82000       30.39030
C         28.16700        9.46640       30.63650
C         28.51920        8.07590       32.61750
C         27.14450        7.40220       32.42570
C         15.89820       10.29110       31.91350
O         28.99640        8.51170       31.32790
C         21.36510       12.34980       31.38710
C         17.15840       10.90300       31.90190
C         23.72310        8.31080       31.22350
C         26.16030        8.32250       31.69810
C         21.45240        9.57040       30.79550
C         20.18260       10.26080       30.61250
C         15.02580       10.45290       30.82380
C         15.42490       11.22740       29.72430
C         16.68010       11.85880       29.72040
C         22.56010       10.21610       31.29880
C         21.61520        8.22250       30.48350
C         20.14690       11.60610       30.92900
C         17.55720       11.70480       30.81340
C         23.75590       12.24840       32.11930
F         17.98910       10.70860       32.94570
C         18.88740       12.45590       30.83060
N         22.76230        7.57510       30.71240
O         21.34920       13.55510       31.58770
N         22.52170       11.59020       31.59720
N         23.69430        9.58380       31.52040
N         24.88530        7.65290       31.45310
H         14.76200       11.34070       28.87150
H         16.96330       12.46940       28.86820
H         15.61170        9.67860       32.76330
H         19.29530        9.75280       30.25290
H         20.79640        7.64240       30.06160
H         26.89500        7.97950       29.69470
H         26.12130        9.54950       29.91610
H         28.04990       10.37890       31.23380
H         28.62130        9.74520       29.67780
H         29.21960        7.35790       33.06150
H         28.42530        8.92770       33.30220
H         26.72970        7.11940       33.40020
H         27.28460        6.47840       31.85250
H         26.00050        9.19040       32.34960
H         23.59390       13.30340       32.37200
H         24.09330       11.72650       33.02310
H         24.54860       12.18490       31.36380
H         24.88790        6.68170       31.16850
H         14.05300        9.97000       30.81870
H         18.96470       13.10030       29.94720
H         18.84860       13.14540       31.68200
