59
2q
C         27.21100        8.54280       30.43820
C         28.61640        9.00910       30.88430
C         28.28630        8.05180       33.10670
C         26.88310        7.54580       32.71380
C         15.98670       10.42320       31.76500
O         29.09200        8.11500       31.91120
C         21.43520       12.50410       31.23220
C         17.27880       10.96350       31.85890
C         23.82900        8.47520       31.00550
C         26.24940        8.41110       31.62200
C         21.53400        9.70570       30.70580
C         20.23330       10.36270       30.62090
C         15.19380       10.70830       30.64290
C         15.68050       11.53930       29.62350
C         16.96790       12.10080       29.72640
C         22.68680       10.39780       31.02100
C         21.67080        8.33530       30.48680
C         20.21020       11.70900       30.93150
C         17.76940       11.80410       30.83920
F         18.04850       10.65650       32.92320
F         13.97020       10.15980       30.52560
O         19.00950       12.38950       30.92220
N         22.83420        7.70710       30.64530
O         21.37290       13.69870       31.48230
N         22.66430       11.80640       31.22000
N         23.82640        9.76630       31.19960
N         24.98900        7.81550       31.19350
H         15.06370       11.74470       28.75360
H         17.35080       12.75250       28.94670
H         15.61470        9.76990       32.54870
H         19.33410        9.82130       30.35070
H         20.81780        7.71840       30.21010
H         27.29170        7.57160       29.93650
H         26.79700        9.24810       29.70830
H         28.56990       10.03720       31.26380
H         29.30230        9.01100       30.02820
H         28.73260        7.36320       33.83460
H         28.21090        9.04040       33.57610
H         26.22760        7.52740       33.59230
H         26.96840        6.51190       32.35960
H         26.08860        9.40990       32.04580
H         23.67120       13.65260       31.45160
H         24.94670        6.82060       31.01310
C         26.21070       13.42510       30.57790
C         25.02390       12.43350       30.39250
C         23.92310       12.58550       31.48470
C         24.46240       12.34000       32.91260
C         25.58270       13.34220       33.32070
H         25.87880       14.46530       30.47270
H         27.00660       13.22730       29.84950
H         25.43050       11.41560       30.37910
H         24.57090       12.59220       29.40700
H         23.63250       12.41940       33.62440
H         24.83640       11.31190       32.98220
H         25.21650       14.37610       33.30840
H         25.98890       13.11260       34.31340
S         26.98470       13.30750       32.19980
O         27.60560       11.98980       32.32250
O         27.78650       14.51400       32.42180
