35
2v
C         15.99450       10.43170       31.73630
C         21.40140       12.33650       31.41780
C         17.29900       10.95040       31.77850
C         23.77780        8.29760       31.24700
C         26.18760        8.29110       31.85260
C         21.51240        9.55180       30.79950
C         20.24260       10.24080       30.58900
C         15.18330       10.67960       30.61920
C         15.66220       11.45630       29.55470
C         16.96160       11.99790       29.60470
C         22.61050       10.19880       31.33480
C         21.68650        8.20960       30.46710
C         20.20820       11.58040       30.93200
C         17.78550       11.73410       30.70970
C         23.78000       12.24240       32.19550
F         18.08010       10.67870       32.84450
F         13.94990       10.14500       30.54980
O         19.04400       12.28990       30.73010
N         22.82990        7.56550       30.70720
O         21.37020       13.54260       31.62110
N         22.55950       11.57560       31.65120
N         23.74340        9.56600       31.56800
N         24.92540        7.62960       31.48900
H         15.03110       11.63200       28.68850
H         17.33730       12.60740       28.78820
H         15.62750        9.81970       32.55500
H         19.37700        9.74000       30.17120
H         20.88330        7.63090       30.01450
H         26.08920        8.80280       32.81770
H         24.19560       11.64740       33.01790
H         24.53670       12.31890       31.40500
H         23.56510       13.24690       32.58010
H         24.94010        6.67320       31.15860
H         26.46940        9.02600       31.08850
H         26.99230        7.54990       31.93240
