43
2aa
C         15.90900       10.42080       31.70910
C         21.27610       12.32840       31.44310
C         17.20330       10.96250       31.75080
C         23.63100        8.27650       31.23000
C         26.08570        8.17900       31.66320
C         21.38490        9.55760       30.76370
C         20.12850       10.26060       30.53440
C         15.10090       10.64070       30.58400
C         15.57300       11.40790       29.50990
C         16.86070       11.97530       29.56000
C         22.46900       10.18070       31.35290
C         21.55790        8.22450       30.39770
C         20.09340       11.59190       30.90590
C         17.68050       11.74300       30.67500
C         23.62740       12.19040       32.29700
F         17.98620       10.71120       32.82090
F         13.87720       10.08570       30.51470
O         18.93520       12.30580       30.69210
N         22.68930        7.56620       30.65030
O         21.24690       13.53050       31.66840
N         22.41910       11.55110       31.69830
N         23.58670        9.52990       31.61060
N         24.75100        7.56480       31.48860
H         14.94600       11.55400       28.63530
H         17.23140       12.57690       28.73540
H         15.54990        9.81110       32.53300
H         19.27060        9.77470       30.08430
H         20.76310        7.66590       29.90670
H         25.98420        9.25660       31.84110
H         23.94360       11.62360       33.18130
H         23.44190       13.22730       32.60290
H         24.44510       12.17940       31.56600
H         24.70850        6.64920       31.05950
C         26.77550        7.61050       32.92740
H         26.10700        7.78210       33.78000
H         27.70240        8.16600       33.11520
C         26.97810        8.03830       30.39970
H         27.91290        8.59010       30.55700
H         27.23770        6.98120       30.26380
O         27.05040        6.20390       32.80100
H         26.37890        5.82910       32.20570
O         26.30510        8.52350       29.22410
H         26.84280        8.28370       28.45000
