45
2c
C         26.78390        8.96730       30.39500
C         28.17320        9.60690       30.59840
C         28.52750        8.31850       32.64320
C         27.14540        7.65050       32.49750
O         28.99720        8.67710       31.32830
C         21.09760       12.34600       31.34260
C         23.71350        8.44730       31.29390
C         26.15950        8.53590       31.72820
C         21.37320        9.55740       30.87700
C         20.06630       10.15690       30.68010
C         22.43710       10.28230       31.35880
C         21.61380        8.22120       30.57610
C         19.94560       11.52130       30.85750
C         23.47240       12.41580       32.14780
N         22.79550        7.64870       30.80140
O         20.99580       13.55040       31.51850
N         22.29650       11.66200       31.62030
N         23.61510        9.72460       31.57710
N         24.89980        7.83420       31.51680
H         19.22090        9.57970       30.32420
H         20.82990        7.58790       30.16450
H         26.87810        8.09600       29.73660
H         26.12080        9.68260       29.89480
H         28.07430       10.55040       31.14900
H         28.62280        9.83010       29.62300
H         29.22420        7.61850       33.12060
H         28.44880        9.20710       33.28140
H         26.73570        7.42320       33.48850
H         27.27210        6.69580       31.97400
H         25.98820        9.43300       32.33570
H         24.24670       12.47050       31.37280
H         23.88690       11.89260       33.01820
H         23.20780       13.43430       32.45710
H         24.92490        6.86850       31.21540
C         16.07130       13.16420       29.96330
C         16.17600       12.09800       30.86900
C         17.43610       11.58670       31.21560
C         18.61420       12.14010       30.65540
C         18.49470       13.25890       29.80490
C         17.23130       13.75180       29.43980
H         15.09540       13.54320       29.67470
H         15.28090       11.65510       31.29580
Cl        17.49040       10.32840       32.44780
H         19.37900       13.71760       29.37250
H         17.15380       14.57140       28.73160
