58
2p
C         26.95800        8.89740       30.33900
C         28.35210        9.48430       30.65320
C         28.58110        8.02770       32.60030
C         27.19860        7.40060       32.33130
C         16.01680       10.44900       31.76980
O         29.11970        8.48110       31.34280
C         21.50120       12.40820       31.31740
C         17.31750       10.96880       31.86090
C         23.83770        8.35800       31.06970
C         26.26610        8.36410       31.59610
C         21.54100        9.60340       30.78170
C         20.25760       10.29370       30.67250
C         15.22860       10.73880       30.64580
C         15.72720       11.56070       29.62440
C         17.02480       12.10120       29.72400
C         22.69240       10.26920       31.13870
C         21.67720        8.23940       30.52740
C         20.25890       11.64360       30.98560
C         17.82390       11.79600       30.83710
C         23.97980       12.35100       31.68080
F         18.07840       10.65600       32.92910
F         13.99780       10.20580       30.53130
O         19.07870       12.35550       30.91360
N         22.83830        7.60100       30.69030
O         21.49210       13.61170       31.53070
N         22.69070       11.66060       31.37430
N         23.83850        9.64400       31.28570
N         25.00700        7.71080       31.25690
H         15.11200       11.77380       28.75530
H         17.41670       12.74340       28.94080
H         15.63400        9.80620       32.55710
H         19.35470        9.77880       30.36530
H         20.82600        7.63660       30.21590
H         26.32760        9.66320       29.87230
H         27.05610        8.07920       29.61600
H         28.25340       10.38080       31.27740
H         28.85070        9.77470       29.72030
H         29.24230        7.27620       33.04900
H         28.48550        8.86270       33.30510
H         26.73540        7.09350       33.27610
H         27.34120        6.49600       31.72890
H         26.07490        9.20750       32.27090
H         23.80430       13.28320       32.23170
H         24.57970       11.71320       32.34140
H         24.98280        6.71250       31.09260
C         24.77530       12.64240       30.38570
H         24.67040       11.77880       29.71870
H         24.31560       13.48780       29.86080
C         26.29870       12.89000       30.58750
H         26.78890       13.00900       29.61350
H         26.75910       12.04590       31.11540
S         26.73280       14.36560       31.53070
O         26.15700       15.53060       30.85540
O         26.41680       14.10890       32.93680
C         28.50330       14.47660       31.38650
H         28.93100       13.56930       31.83030
H         28.74710       14.54970       30.31950
H         28.81960       15.37350       31.93310
