46
3flz
C         26.71540        8.85630       30.41090
C         28.10050        9.50690       30.60410
C         28.50230        8.17220       32.61260
C         27.12310        7.49510       32.47480
C         16.06760       10.45400       32.03870
O         28.94620        8.57000       31.29950
C         21.25340       12.36630       31.38160
C         17.35420       11.00520       31.89400
C         23.68030        8.35030       31.30350
C         26.11900        8.39370       31.74680
C         21.41040        9.57580       30.79500
C         20.14250       10.25120       30.53670
C         15.11930       10.61700       31.01400
C         15.44640       11.35060       29.86160
C         16.72380       11.92000       29.73180
C         22.48330       10.23670       31.35890
C         21.61040        8.23580       30.47150
C         20.09300       11.59850       30.84000
C         17.67850       11.73450       30.73770
C         23.60000       12.28690       32.26160
O         18.92660       12.28140       30.57680
N         22.75630        7.60620       30.74130
O         21.20030       13.57080       31.58600
N         22.40620       11.61310       31.66990
N         23.61760        9.61920       31.61960
N         24.84550        7.70660       31.54820
H         14.71870       11.46670       29.06390
H         16.98380       12.48540       28.84180
H         15.81540        9.88340       32.92760
H         19.29080        9.74300       30.09970
H         20.82650        7.64950       29.99550
H         26.80770        7.99750       29.73580
H         26.03770        9.57340       29.93330
H         28.00000       10.43680       31.17720
H         28.53010        9.75650       29.62620
H         29.21390        7.46690       33.05910
H         28.42650        9.04350       33.27470
H         26.73250        7.23980       33.46670
H         27.24780        6.55520       31.92470
H         25.96560        9.27740       32.37830
H         24.40980       12.30910       31.52210
H         23.94440       11.72390       33.13770
H         23.38200       13.31390       32.57930
H         24.85860        6.74820       31.22360
H         18.09770       10.86230       32.67250
H         14.13650       10.16360       31.10250
