46
3fln
C         26.76220        8.79790       30.40730
C         28.14510        9.44750       30.61730
C         28.55400        8.05430       32.58670
C         27.17680        7.37850       32.43040
C         15.95450       10.42360       31.73100
O         28.99500        8.49500       31.28610
C         21.34210       12.30190       31.40750
C         17.25870       10.94430       31.75580
C         23.73260        8.26980       31.28340
C         26.17120        8.29770       31.73150
C         21.46830        9.51560       30.79610
C         20.20210       10.20300       30.55820
C         15.14170       10.63940       30.60800
C         15.61830       11.38450       29.52010
C         16.91610       11.92990       29.55320
C         22.55310       10.16490       31.34970
C         21.65200        8.17390       30.47260
C         20.16060       11.54290       30.89540
C         17.74210       11.69680       30.66330
C         23.70560       12.19830       32.23610
F         18.04200       10.70490       32.82820
F         13.90840       10.10410       30.55560
O         19.00120       12.25070       30.66330
N         22.79500        7.53400       30.73220
O         21.30570       13.50540       31.61130
N         22.49510       11.53820       31.66480
N         23.68480        9.53850       31.59790
N         24.89590        7.61920       31.51800
H         14.98680       11.53190       28.64900
H         17.28970       12.51820       28.72030
H         15.58930        9.83510       32.56750
H         19.34500        9.69950       30.12640
H         20.85520        7.59400       30.01020
H         26.85260        7.95850       29.70810
H         26.08190        9.52700       29.95210
H         28.04070       10.35990       31.21710
H         28.57330        9.72780       29.64710
H         29.26760        7.33660       33.00970
H         28.47570        8.90360       33.27630
H         26.78900        7.09290       33.41510
H         27.30290        6.45610       31.85160
H         26.02200        9.16380       32.38790
H         24.50100       12.20890       31.48090
H         24.05950       11.62960       33.10470
H         23.50630       13.22770       32.55850
H         24.90270        6.65360       31.21510
