44
2bb
C         16.02390       10.41950       31.76480
C         21.47070       12.38720       31.41100
C         17.32950       10.93070       31.83350
C         23.95870        8.43840       31.07600
C         26.41160        8.63310       31.02800
C         21.61030        9.59550       30.82820
C         20.30920       10.25240       30.68970
C         15.22660       10.69770       30.64450
C         15.72010       11.49670       29.60330
C         17.02260       12.02670       29.67990
C         22.72530       10.28330       31.26590
C         21.80590        8.25080       30.51100
C         20.26680       11.60170       31.00090
C         17.83250       11.73280       30.78790
C         23.89300       12.35940       32.03630
F         18.09440       10.63890       32.90460
F         13.98960       10.17600       30.55280
O         19.08550       12.29790       30.84400
N         22.99660        7.65810       30.65090
O         21.42740       13.59350       31.60750
N         22.65760       11.65620       31.57930
N         23.89920        9.70030       31.38760
N         25.17750        7.85250       31.15690
H         15.09640       11.70280       28.73840
H         17.41000       12.65600       28.88400
H         15.64330        9.79490       32.56750
H         19.43250        9.72540       30.33160
H         20.98970        7.63190       30.14270
H         26.37650        9.53060       31.65770
H         24.43380       11.73870       32.76120
H         24.54800       12.53930       31.17500
H         23.66540       13.31800       32.51840
H         25.15490        6.88690       30.85450
H         26.50750        8.97260       29.98940
C         27.63070        7.79330       31.38650
H         27.58220        6.79680       30.93070
H         28.54460        8.30320       31.05770
S         27.83990        7.56250       33.15060
O         27.84150        8.87960       33.78980
O         28.99010        6.67770       33.35180
C         26.39060        6.68660       33.71150
H         26.56570        6.40510       34.75710
H         25.53630        7.36820       33.61770
H         26.27200        5.80380       33.07150
