43
2x
C         16.00320       10.43580       31.73520
C         21.41310       12.35840       31.40060
C         17.30910       10.95140       31.77500
C         23.80340        8.32980       31.28060
C         21.53060        9.56780       30.81230
C         20.25750       10.25040       30.59740
C         15.18830       10.69140       30.62190
C         15.66380       11.47500       29.56080
C         16.96490       12.01270       29.60830
C         22.62770       10.22700       31.32890
C         21.70960        8.22010       30.50570
C         20.21890       11.59310       30.93050
C         17.79340       11.73910       30.70810
C         23.79950       12.27440       32.15520
F         18.09140       10.67620       32.83910
F         13.95250       10.16160       30.55500
O         19.05080       12.29780       30.72920
N         22.85760        7.58510       30.75620
O         21.37700       13.56460       31.59970
N         22.57680       11.60480       31.62470
N         23.76240        9.60420       31.56880
N         24.96660        7.68600       31.53250
H         15.02680       11.66110       28.70110
H         17.33720       12.62910       28.79540
H         15.63630        9.82340       32.55360
H         19.39200        9.74340       30.18690
H         20.90620        7.62920       30.06970
H         26.08700        9.23730       32.42870
H         24.14750       11.74510       33.05070
H         24.59240       12.23810       31.39810
H         23.61550       13.32180       32.42410
H         24.97860        6.71980       31.23200
C         26.23840        8.38750       31.75190
C         27.30780        7.50650       32.37500
C         28.61510        8.14140       31.90360
O         28.28600        8.57320       30.57650
C         26.89330        8.92920       30.46580
H         27.24280        6.48270       31.98870
H         27.22970        7.48070       33.46810
H         28.86410        9.00180       32.53690
H         29.44480        7.42400       31.91420
H         26.44610        8.45480       29.58360
H         26.75640       10.01550       30.40010
