48
2gg
C         27.11810        8.75860       30.65690
C         28.39240        9.59380       30.98910
C         28.24170        8.35300       33.52240
C         26.99530        7.62120       32.93670
C         15.97460       10.42700       31.71920
C         21.36190       12.38450       31.39820
C         17.27780       10.94820       31.75460
C         23.83070        8.40370       31.24780
C         26.23860        8.45600       31.88810
C         21.52520        9.59450       30.80230
C         20.23990       10.25970       30.58960
C         15.16030       10.66530       30.60230
C         15.63410       11.43700       29.53250
C         16.93200       11.98220       29.57560
C         22.60890       10.27080       31.32270
C         21.73550        8.25170       30.48690
C         20.18280       11.60350       30.91860
C         17.75920       11.72650       30.68040
C         23.74510       12.33170       32.16560
F         18.06120       10.68860       32.82200
F         13.92690       10.13060       30.54100
O         19.01100       12.29570       30.70180
N         22.90020        7.64210       30.72640
O         21.30960       13.59010       31.59740
N         22.53340       11.64510       31.63010
N         23.75730        9.67090       31.55270
N         25.00950        7.77690       31.48770
H         14.99760       11.61040       28.66980
H         17.30150       12.59290       28.75720
H         15.61030        9.82500       32.54640
H         19.38180        9.74360       30.17480
H         20.94730        7.64170       30.04930
H         27.39930        7.81200       30.18080
H         26.51450        9.30530       29.92310
H         28.11950       10.58820       31.36320
H         29.03730        9.71150       30.10960
H         28.79570        7.70510       34.21270
H         27.95230        9.27240       34.04590
H         26.30390        7.37410       33.75070
H         27.29470        6.66670       32.48850
H         25.99980        9.41200       32.37010
H         24.13290       11.77320       33.02630
H         24.51930       12.35850       31.38900
H         23.53190       13.35750       32.49050
H         25.04380        6.81310       31.18110
S         29.42770        8.85520       32.26440
O         30.03470        7.64510       31.71010
O         30.28510        9.90020       32.83220
