46
2h
C         26.42280        8.72220       30.45370
C         27.80470        9.38520       30.62390
C         28.19170        8.15140       32.69940
C         26.81370        7.46430       32.58850
C         16.25060       10.56020       32.20450
O         28.64510        8.48370       31.37010
C         21.13720       12.40250       31.36070
C         17.38700       11.26100       31.77840
C         23.39130        8.30170       31.33620
C         25.81530        8.32490       31.80750
C         21.25540        9.65680       30.58840
C         20.10810       10.44000       30.12970
C         15.14930       10.41210       31.34750
C         15.17280       10.97870       30.06760
C         16.30550       11.68450       29.63930
C         22.23360       10.21190       31.39250
C         21.46010        8.32980       30.20270
C         20.09270       11.76990       30.51320
C         17.42730       11.81680       30.47980
C         23.25380       12.10700       32.66820
F         18.41440       11.40100       32.63860
S         18.79830       12.76180       29.80630
N         22.54260        7.63940       30.58380
O         21.10170       13.58860       31.64840
N         22.16300       11.55810       31.80790
N         23.30040        9.53350       31.76470
N         24.53760        7.63670       31.62540
H         14.32250       10.86060       29.40250
H         16.31530       12.12720       28.64770
H         16.22870       10.11780       33.19610
H         19.34410       10.03300       29.47750
H         20.75550        7.81700       29.55040
H         26.52370        7.83420       29.81900
H         25.74790        9.41440       29.93700
H         27.69920       10.33970       31.15390
H         28.23980        9.59130       29.63830
H         28.90220        7.47170       33.18560
H         28.10940        9.05480       33.31610
H         26.41630        7.26070       33.58960
H         26.94420        6.49620       32.09100
H         25.66560        9.23920       32.39470
H         23.11120       13.16950       32.90060
H         23.29290       11.54570       33.60980
H         24.21640       11.98950       32.15570
H         24.57270        6.71680       31.20510
H         14.27870        9.84700       31.66720
