46
3fmk
C         16.03100       10.47850       31.73690
C         21.44350       12.35830       31.41270
C         17.33190       11.00410       31.78560
C         23.70210        8.26020       31.32770
C         26.07980        8.20110       32.03960
C         21.49070        9.56960       30.80690
C         20.23980       10.28860       30.58170
C         15.21630       10.74120       30.62560
C         15.68700       11.54340       29.57620
C         16.98360       12.09050       29.63270
C         22.59870       10.19460       31.33840
C         21.63310        8.21880       30.49930
C         20.23210       11.62720       30.93150
C         17.81230       11.80860       30.72910
C         23.83430       12.20310       32.16040
F         18.11750       10.71680       32.84440
F         13.98710       10.19850       30.54820
O         19.07520       12.35470       30.74740
N         22.75380        7.54760       30.77660
O         21.43730       13.56230       31.62780
N         22.58980       11.57290       31.62910
N         23.70530        9.53340       31.60900
N         24.82820        7.57380       31.61370
H         15.05190       11.73450       28.71630
H         17.35540       12.71650       28.82690
H         15.66930        9.84940       32.54480
H         19.36380        9.80610       30.16420
H         20.81930        7.65370       30.04840
H         25.85330        9.00810       32.74720
H         24.12560       11.70380       33.09260
H         24.64540       12.07640       31.43290
H         23.70950       13.27380       32.36330
H         24.83610        6.62090       31.27320
C         26.93730        7.17750       32.79530
H         27.27320        6.37740       32.12550
H         27.82220        7.65130       33.23590
H         26.35190        6.72510       33.60420
C         26.80060        8.82420       30.83140
H         27.05900        8.02840       30.12200
H         26.11110        9.51300       30.32800
N         28.01140        9.57750       31.17760
N         29.23030        9.25840       30.69430
C         29.97320       10.20330       31.23940
N         29.23930       11.04500       32.05110
N         27.99990       10.65590       32.00130
H         31.04070       10.31360       31.10060
