49
2l
C         26.81850        8.89880       30.38560
C         28.20270        9.54180       30.60820
C         28.56700        8.18010       32.60690
C         27.18990        7.50840       32.43560
C         15.98580       10.44800       31.73390
O         29.03430        8.59450       31.30690
C         21.38000       12.43220       31.34510
C         17.28320       10.98420       31.77590
C         23.76420        8.39310       31.25010
C         26.20300        8.42230       31.70560
C         21.49120        9.63240       30.80000
C         20.21550       10.31070       30.59350
C         15.16760       10.69420       30.62100
C         15.63170       11.48680       29.56140
C         16.92280       12.04690       29.61190
C         22.59950       10.30020       31.28230
C         21.65980        8.27820       30.51600
C         20.18010       11.65710       30.90900
C         17.75380       11.78380       30.71170
C         23.78230       12.39970       32.01610
F         13.94110       10.14420       30.55170
O         19.00490       12.35460       30.73030
N         22.80870        7.64230       30.75480
O         21.34020       13.63890       31.54140
N         22.55460       11.68950       31.54980
N         23.73190        9.67230       31.51890
N         24.92870        7.74560       31.48240
H         14.99520       11.66130       28.69890
H         15.62960        9.82510       32.54910
H         19.34470        9.79460       30.20620
H         20.84440        7.68350       30.10810
H         26.91330        8.04810       29.70090
H         26.15060        9.62640       29.91000
H         28.09590       10.46550       31.19000
H         28.64800        9.80100       29.63990
H         29.26920        7.46760       33.05670
H         28.47840        9.04230       33.27920
H         26.78350        7.23980       33.41770
H         27.31880        6.57700       31.87220
H         26.04840        9.30100       32.34370
H         24.67210       11.92790       31.58160
H         23.78500       13.43620       31.65710
H         24.93050        6.77360       31.20090
C         23.91050       12.39100       33.54670
H         24.88890       12.77790       33.85440
H         23.13590       13.02160       33.99830
H         23.79840       11.37020       33.93010
F         18.07300       10.71500       32.83680
H         17.28750       12.67000       28.80060
