54
2s
C         26.86930        9.12770       30.21550
C         28.25450        9.72750       30.53520
C         28.40830        8.41940       32.59410
C         27.03150        7.78070       32.32520
C         15.76080       10.32550       31.70880
O         28.99300        8.77340       31.32480
C         21.13020       12.56060       31.30200
C         17.03690       10.89810       31.81280
C         23.69670        8.64360       30.95880
C         26.13230        8.69510       31.48630
C         21.34560        9.78200       30.67660
C         20.02480       10.39790       30.58240
C         14.97400       10.58340       30.57600
C         15.45330       11.41250       29.55320
C         16.71950       12.01440       29.66930
C         22.46340       10.50840       31.04410
C         21.54480        8.42700       30.41140
C         19.94580       11.73450       30.93060
C         17.51160       11.75080       30.79610
C         23.60790       12.68130       31.64180
F         17.80830       10.60580       32.88040
F         13.76500       10.00830       30.44890
O         18.72770       12.37750       30.89310
N         22.73250        7.84380       30.57020
O         21.02380       13.74550       31.58230
N         22.37160       11.89830       31.31070
N         23.64050        9.93250       31.18740
N         24.88100        8.02160       31.15550
H         14.84660       11.58420       28.66900
H         17.09280       12.67090       28.88900
H         15.40200        9.66560       32.49310
H         19.15270        9.83740       30.26620
H         20.72420        7.78570       30.09480
H         26.98860        8.26050       29.55570
H         26.26410        9.86540       29.67590
H         28.13470       10.67210       31.07980
H         28.78780        9.93860       29.60020
H         29.04800        7.70290       33.12380
H         28.29200        9.30700       33.22800
H         26.53530        7.55100       33.27520
H         27.18620        6.83020       31.80150
H         25.93190        9.58910       32.08940
H         23.34880       13.61130       32.16260
H         24.21620       12.09510       32.34150
H         24.87940        7.02650       30.97170
C         24.47880       13.02350       30.40460
H         24.73950       12.06840       29.93250
C         23.76750       13.90330       29.33190
H         24.38670       13.92140       28.42660
H         22.81260       13.43490       29.06340
O         25.68230       13.68140       30.83140
H         25.48240       14.63270       30.85980
O         23.54430       15.24360       29.79950
H         22.99420       15.68980       29.13310
