46
2g
C         26.74920        8.85180       30.40740
C         28.13310        9.50020       30.61540
C         28.52630        8.13450       32.60630
C         27.14940        7.45820       32.45150
C         15.96160       10.36190       31.91950
O         28.97660        8.55360       31.30160
C         21.26390       12.32430       31.39120
C         17.25840       10.89580       31.86070
C         23.71010        8.32360       31.28010
C         26.14900        8.36830       31.73380
C         21.42910        9.53910       30.79340
C         20.15170       10.20580       30.56110
C         15.06750       10.56570       30.85200
C         15.47090       11.32230       29.73790
C         16.76230       11.87890       29.69130
C         22.50650       10.20510       31.34140
C         21.63000        8.19910       30.47340
C         20.09010       11.54590       30.89320
C         17.66260       11.65590       30.74330
C         23.62980       12.26090       32.21810
F         18.10840       10.66460       32.88270
O         18.91390       12.22630       30.66450
N         22.78110        7.57480       30.73210
O         21.21110       13.53070       31.58690
N         22.42960       11.58100       31.64920
N         23.64690        9.59350       31.59110
N         24.87820        7.68230       31.51930
H         14.78830       11.47300       28.90670
H         17.07400       12.47050       28.83560
H         15.66380        9.77400       32.78270
H         19.29760        9.69060       30.13740
H         20.84040        7.60750       30.01360
H         26.84350        8.00320       29.71990
H         26.07180        9.57560       29.93960
H         28.02970       10.42170       31.20140
H         28.56660        9.76440       29.64300
H         29.23670        7.42310       33.04510
H         28.44550        8.99480       33.28200
H         26.75490        7.18690       33.43760
H         27.27770        6.52800       31.88580
H         25.99100        9.24150       32.37860
H         24.43820       12.25030       31.47680
H         23.96790       11.72050       33.11080
H         23.42310       13.29990       32.50280
H         24.89240        6.71930       31.20860
H         14.07270       10.13090       30.87810
