46
2f
C         26.79450        8.85660       30.45290
C         28.18440        9.49780       30.64510
C         28.60060        8.12300       32.62490
C         27.21640        7.45440       32.48810
C         15.55390       11.17430       30.00270
O         29.03210        8.54300       31.31420
C         21.34490       12.34350       31.38020
C         16.80240       11.77820       29.81360
C         23.77160        8.32800       31.34020
C         26.20860        8.36790       31.78470
C         21.50090        9.54480       30.83030
C         20.23290       10.21520       30.56820
C         15.26310       10.50290       31.19610
C         16.23100       10.41960       32.21170
C         17.49630       11.00230       32.01130
C         22.57510       10.21380       31.38260
C         21.69870        8.20070       30.52270
C         20.18410       11.56650       30.85430
C         17.77580       11.68220       30.81330
C         23.69220       12.27330       32.26480
O         19.01030       12.23890       30.59920
N         22.84580        7.57670       30.79200
O         21.29070       13.55040       31.56770
N         22.49810       11.59410       31.67750
N         23.71070        9.59970       31.64410
N         24.93420        7.68450       31.58600
H         16.01010        9.88960       33.13350
H         18.25990       10.92270       32.77940
F         14.63870       11.20340       29.01950
H         19.37910        9.69830       30.14570
H         20.91420        7.60380       30.06110
H         26.87670        8.01260       29.75820
H         26.11620        9.58720       29.99720
H         28.09330       10.41640       31.23750
H         28.60580        9.76430       29.66800
H         29.31440        7.40660       33.04970
H         28.53640        8.98220       33.30380
H         26.83380        7.18210       33.47870
H         27.33270        6.52500       31.91850
H         26.05930        9.23980       32.43340
H         24.50980       12.27240       31.53360
H         24.02620       11.72760       33.15570
H         23.47860       13.30860       32.55750
H         24.94220        6.72800       31.25550
H         17.02720       12.29450       28.88490
H         14.29260       10.03120       31.31890
