45
2z
C         15.97880       10.42300       31.73040
C         21.32380       12.40100       31.43310
C         17.28280       10.94420       31.74960
C         23.88270        8.47860       31.27760
C         26.42180        8.44040       31.31110
C         21.54180        9.61350       30.84760
C         20.25080       10.25630       30.60680
C         15.15070       10.66040       30.62300
C         15.61090       11.43090       29.54660
C         16.90900       11.97460       29.57330
C         22.60150       10.30660       31.39640
C         21.78420        8.27820       30.52540
C         20.17610       11.60600       30.90600
C         17.75110       11.71830       30.66560
C         23.66590       12.38610       32.30620
F         18.07790       10.68720       32.80940
F         13.91830       10.12250       30.57360
O         19.00380       12.28420       30.65690
N         22.96480        7.69590       30.75850
O         21.25040       13.60710       31.62410
N         22.49020       11.67620       31.72100
N         23.76240        9.73100       31.61510
N         25.07170        7.85550       31.50140
H         14.96570       11.60090       28.68980
H         17.27020       12.58220       28.74880
H         15.62530        9.81750       32.55980
H         19.40930        9.72450       30.17810
H         21.01150        7.65480       30.07910
H         24.38140       12.62310       31.50930
H         23.37040       13.31470       32.80980
H         24.16470       11.74800       33.04600
H         24.98150        6.87540       31.26590
C         27.44320        7.48730       31.99840
H         27.48820        6.54490       31.43880
H         28.44840        7.92590       31.97920
O         27.02240        7.22800       33.34690
H         26.05900        7.35990       33.32950
C         26.71220        8.51230       29.80340
H         27.71460        8.91480       29.61730
H         25.98600        9.16150       29.30060
H         26.64450        7.51760       29.34770
C         26.61390        9.85100       31.92160
H         26.10780       10.61810       31.32410
H         26.21040        9.89180       32.94000
H         27.67470       10.12450       31.96140
