43
2k
C         26.90260        8.84100       30.41440
C         28.29050        9.46670       30.66440
C         28.61330        8.07890       32.65140
C         27.22850        7.42650       32.45740
C         16.03700       10.46460       31.75470
O         29.10150        8.50100       31.36150
C         21.48810       12.33880       31.40720
C         17.33950       10.98460       31.82070
C         23.82420        8.34530       31.23580
C         26.26070        8.35570       31.72050
C         21.53340        9.56280       30.80330
C         20.26120       10.26690       30.62340
C         15.23310       10.74200       30.63920
C         15.71830       11.54900       29.60000
C         17.01730       12.08900       29.67310
C         22.64290       10.21250       31.29130
C         21.70900        8.21450       30.50530
C         20.25470       11.61210       30.96860
C         17.83300       11.79560       30.77670
F         18.11380       10.68650       32.88440
F         14.00020       10.20870       30.54850
O         19.09500       12.34190       30.81850
N         22.86740        7.59060       30.73860
O         21.54520       13.53560       31.63420
N         22.60530       11.55440       31.56640
N         23.78580        9.62540       31.51770
N         24.98500        7.69180       31.46870
H         15.09250       11.74840       28.73510
H         17.39950       12.71860       28.87510
H         15.66480        9.83030       32.55380
H         19.37690        9.77340       30.23740
H         20.89880        7.61430       30.09510
H         27.00060        7.99690       29.72180
H         26.24990        9.57980       29.93500
H         28.18640       10.38380       31.25700
H         28.75310        9.73390       29.70640
H         29.30050        7.35150       33.10080
H         28.53220        8.93490       33.33250
H         26.80400        7.15460       33.43080
H         27.35530        6.49720       31.88980
H         26.10150        9.22510       32.37020
H         24.98220        6.72160       31.18060
H         23.47950       11.97560       31.85710
