55
2o
C         26.84520        8.80640       30.42400
C         28.23360        9.44170       30.65210
C         28.55010        8.12570       32.69030
C         27.16260        7.47160       32.51800
C         15.98700       10.45290       31.73410
O         29.04150        8.50060       31.38650
C         21.37970       12.37310       31.39640
C         17.28840       10.97910       31.77120
C         23.76500        8.34360       31.27700
C         26.19940        8.37560       31.74590
C         21.49700        9.58310       30.80880
C         20.22640       10.26970       30.58320
C         15.17270       10.69160       30.61660
C         15.64500       11.46640       29.54730
C         16.94150       12.01500       29.59190
C         22.58940       10.23720       31.33450
C         21.67640        8.23590       30.49980
C         20.18930       11.61290       30.91570
C         17.76810       11.75990       30.69690
C         23.74980       12.29350       32.17920
F         18.07290       10.71730       32.83730
F         13.94150       10.15110       30.55260
O         19.02410       12.31970       30.71120
N         22.82230        7.60060       30.75280
O         21.34980       13.57660       31.60530
N         22.54450       11.61910       31.62220
N         23.72460        9.61670       31.56810
N         24.92730        7.70040       31.51040
H         15.01010       11.63610       28.68270
H         17.31260       12.62310       28.77230
H         15.62440        9.84380       32.55690
H         19.36250        9.76480       30.16690
H         20.87570        7.64640       30.05690
H         26.94670        7.93260       29.77000
H         26.19150        9.51820       29.90660
H         28.13230       10.38120       31.20920
H         28.69760        9.67420       29.68570
H         29.23410        7.41200       33.16550
H         28.47150        9.00450       33.34210
H         26.73440        7.23610       33.49930
H         27.28570        6.52220       31.98400
H         26.03660        9.27030       32.35920
H         23.47250       13.23480       32.66930
H         24.18230       11.65460       32.95890
H         24.93110        6.73190       31.21700
C         24.79630       12.54410       31.07260
H         25.18260       11.58680       30.70180
H         24.36710       13.10700       30.23460
S         26.22760       13.45980       31.64550
O         27.30440       13.26300       30.67750
O         26.45000       13.12860       33.05320
C         25.73100       15.16430       31.54760
H         24.81300       15.28330       32.13600
H         26.55020       15.76110       31.96710
H         25.56700       15.40360       30.48970
