45
2y
C         15.94880       10.43780       31.70900
C         21.32700       12.33550       31.48010
C         17.24650       10.97120       31.76200
C         23.64720        8.26730       31.32200
C         25.96100        8.10740       32.29950
C         21.42460        9.56600       30.81530
C         20.17110       10.27350       30.57430
C         15.13960       10.69050       30.59150
C         15.61210       11.48600       29.53840
C         16.90460       12.04150       29.59860
C         22.50290       10.18100       31.41850
C         21.60240        8.23720       30.43540
C         20.14050       11.60550       30.94320
C         17.72720       11.77320       30.70330
C         23.65570       12.20840       32.36440
F         18.02710       10.69270       32.82650
F         13.91360       10.14140       30.50980
O         18.98620       12.32600       30.72660
N         22.72750        7.57240       30.70350
O         21.31250       13.54040       31.68930
N         22.45750       11.55040       31.76130
N         23.61570        9.52360       31.68270
N         24.78380        7.58770       31.56960
H         14.98260       11.66470       28.67170
H         17.27840       12.66300       28.79030
H         15.58750        9.81060       32.51860
H         19.31320        9.79280       30.11880
H         20.81650        7.68790       29.92010
H         26.56350        7.25120       32.62700
H         24.22000       11.50630       32.99020
H         24.31230       12.57080       31.56390
H         23.36440       13.05490       32.99830
H         24.81910        6.65730       31.17300
H         25.62960        8.61630       33.21300
C         26.88310        9.06560       31.48560
O         26.20510       10.30260       31.27940
H         25.25830       10.10390       31.37890
C         27.21570        8.48130       30.09850
H         27.68340        7.49560       30.20500
H         26.31290        8.36430       29.48780
H         27.90330        9.14080       29.55650
C         28.17610        9.37570       32.26970
H         28.75800        8.46240       32.43970
H         27.94500        9.82130       33.24420
H         28.80710       10.08210       31.71800
