56
2r
C         26.93250        8.67530       30.41050
C         28.31100        9.31190       30.68360
C         28.45340        8.17570       32.84600
C         27.05660        7.54990       32.63690
C         15.92200       10.39760       31.71400
O         29.04410        8.42480       31.55220
C         21.29380       12.42760       31.42530
C         17.21650       10.93630       31.77710
C         23.74810        8.43000       31.21770
C         26.18310        8.40990       31.72010
C         21.47220        9.66110       30.76120
C         20.18460       10.32260       30.56640
C         15.11540       10.65750       30.59570
C         15.58900       11.46350       29.55130
C         16.87680       12.02660       29.62360
C         22.56800       10.33060       31.27420
C         21.65360        8.31300       30.45790
C         20.11880       11.65080       30.94250
C         17.69410       11.75320       30.73040
C         23.69040       12.43930       32.14330
F         17.99670       10.65280       32.84120
F         13.89020       10.10870       30.50610
O         18.93610       12.33760       30.77850
N         22.80240        7.68280       30.70240
O         21.21230       13.61710       31.69150
N         22.50080       11.71810       31.56810
N         23.70600        9.70680       31.50650
N         24.90030        7.76640       31.46460
H         14.96070       11.64790       28.68490
H         17.24830       12.66140       28.82450
H         15.55990        9.76370       32.51800
H         19.32590        9.80700       30.15250
H         20.84810        7.71560       30.03460
H         27.06540        7.73020       29.87130
H         26.33670        9.32880       29.76270
H         28.18380       10.29500       31.15340
H         28.84870        9.45870       29.73880
H         29.07990        7.48740       33.42640
H         28.36150        9.11000       33.41340
H         26.55630        7.42080       33.60370
H         27.17700        6.55150       32.20070
H         26.02790        9.36640       32.23410
H         23.33580       13.20630       32.84280
H         24.27540       11.74060       32.75390
H         24.89190        6.79630       31.17650
C         24.65710       13.11630       31.11760
C         23.94150       14.12820       30.19240
H         23.41820       14.89540       30.77480
H         24.66150       14.63440       29.53900
H         23.20860       13.62390       29.55190
C         25.41730       12.07630       30.27080
H         24.72890       11.49410       29.64730
H         26.14570       12.56160       29.61080
H         25.96070       11.38440       30.92470
O         25.64170       13.84390       31.86150
H         25.19520       14.55140       32.35730
