36
jmc_23
C         -3.51780       22.74820      -29.64460
C         -3.90750       21.63920      -28.85650
C         -3.03180       21.09760      -27.90490
C         -5.45660       25.42780      -31.59910
C         -4.44180       23.25510      -30.71730
C         -6.12000       24.96170      -32.74000
C         -6.86370       25.85910      -33.51010
C         -2.24290       23.33010      -29.40880
C         -1.76360       21.65690      -27.70480
C         -1.37590       22.77850      -28.45050
Cl        -5.52650       20.95400      -28.96800
O         -4.91960       22.50660      -31.55040
N         -4.67550       24.63040      -30.71110
N         -6.96400       27.16880      -33.21610
C         -6.30630       27.61070      -32.14580
C         -5.57280       26.78130      -31.30250
N         -6.52830       28.95760      -31.88740
C         -5.68830       29.83430      -31.22120
O         -4.55990       29.54410      -30.87190
C         -6.34630       31.15830      -30.91600
C         -5.78510       32.01730      -29.79380
C         -5.64360       32.45960      -31.22830
Cl        -1.65930       24.72500      -30.31110
H         -3.33900       20.23800      -27.31660
H         -6.08740       23.92140      -33.05010
H         -7.40320       25.52110      -34.39300
H         -1.08950       21.22940      -26.96830
H         -0.39560       23.21660      -28.28810
H         -4.21690       25.13510      -29.96200
H         -5.09790       27.18490      -30.41320
H         -7.45450       29.27180      -32.15110
H         -7.42490       31.17290      -31.04600
H         -4.88310       31.69480      -29.28100
H         -6.48520       32.56590      -29.16980
H         -6.23580       33.31200      -31.55740
F         -4.41520       32.43150      -31.81460
