35
ejm_42
C         -3.48630       22.62500      -29.57890
C         -3.86690       21.53700      -28.75720
C         -2.96580       20.99600      -27.82900
C         -5.45220       25.27650      -31.54860
C         -4.43560       23.11850      -30.63550
C         -6.10750       24.79200      -32.68700
C         -6.87960       25.66750      -33.45310
C         -2.19840       23.19580      -29.39170
C         -1.68600       21.54320      -27.67670
C         -1.31030       22.65060      -28.44930
Cl        -5.50580       20.88800      -28.78900
O         -4.95950       22.35290      -31.42400
N         -4.64360       24.49810      -30.66830
N         -7.00930       26.97430      -33.16070
C         -6.35730       27.43640      -32.09490
C         -5.59690       26.62860      -31.25430
N         -6.58340       28.79100      -31.87390
C         -5.72480       29.71100      -31.29310
O         -4.63150       29.39750      -30.86290
C         -6.24660       31.14680      -31.19390
Cl        -1.62440       24.56680      -30.33590
H         -3.26200       20.14820      -27.21840
H         -6.04420       23.75380      -32.99930
H         -7.41330       25.31490      -34.33380
H         -0.99480       21.11980      -26.95400
H         -0.32160       23.08110      -28.32130
H         -4.15020       25.02010      -29.95390
H         -5.12140       27.04810      -30.37260
H         -7.49400       29.10500      -32.18760
H         -7.01140       31.31000      -31.96210
H         -6.81070       31.22560      -30.25730
C         -5.15300       32.24220      -31.21840
H         -5.60970       33.23800      -31.17960
H         -4.48650       32.14320      -30.35380
H         -4.54580       32.16990      -32.12830
