39
ejm_49
C         -3.57180       22.50850      -29.60340
C         -3.91420       21.41960      -28.77120
C         -2.97490       20.88130      -27.88020
C         -5.57380       25.19650      -31.44130
C         -4.56350       23.00560      -30.61480
C         -6.16140       24.79170      -32.64290
C         -6.82410       25.74280      -33.42530
C         -2.28450       23.09220      -29.46220
C         -1.69260       21.43430      -27.77970
C         -1.35460       22.54810      -28.56080
Cl        -5.55290       20.77860      -28.74110
O         -5.07450       22.26410      -31.43450
N         -4.81660       24.37240      -30.56270
N         -6.89480       27.04880      -33.09630
C         -6.30920       27.42660      -31.96110
C         -5.68870       26.53330      -31.09370
N         -6.37460       28.79500      -31.69730
C         -5.36140       29.52840      -31.07830
O         -4.29020       29.01490      -30.81230
Cl        -1.77220       24.48930      -30.40660
H         -3.24280       20.03230      -27.25820
H         -6.11720       23.76460      -32.99290
H         -7.30420       25.45540      -34.35900
H         -0.97180       21.01300      -27.08510
H         -0.36560       22.98710      -28.46820
H         -4.33230       24.86120      -29.81920
H         -5.25810       26.88600      -30.16120
H         -7.24770       29.23470      -31.96270
C         -5.95850       33.69310      -30.01840
C         -6.87730       33.05960      -30.86420
C         -6.72560       31.70400      -31.20790
C         -5.61320       30.97460      -30.72860
C         -4.68620       31.63340      -29.88310
C         -4.86360       32.97680      -29.52350
H         -6.09060       34.73840      -29.75480
H         -7.70050       33.63910      -31.27140
H         -7.45760       31.25110      -31.87010
H         -3.82360       31.10310      -29.49060
H         -4.14740       33.46340      -28.86810
