33
ejm_50
C         -3.48910       22.70770      -29.61710
C         -3.84940       21.59940      -28.81290
C         -2.93990       21.06430      -27.88950
C         -5.47160       25.37440      -31.54610
C         -4.44850       23.20480      -30.66430
C         -6.11530       24.90720      -32.69730
C         -6.88060       25.79350      -33.45740
C         -2.21150       23.29930      -29.41940
C         -1.67380       21.63850      -27.72390
C         -1.31660       22.76260      -28.47990
Cl        -5.47260       20.91380      -28.86160
O         -4.97380       22.44620      -31.45880
N         -4.66180       24.58380      -30.67820
N         -7.01060       27.09690      -33.14930
C         -6.37240       27.54270      -32.06780
C         -5.62360       26.72120      -31.23060
N         -6.58120       28.90040      -31.84340
C         -5.70590       29.81150      -31.25730
O         -4.63840       29.46880      -30.78010
C         -6.14210       31.29450      -31.25970
Cl        -1.65240       24.68520      -30.34890
H         -3.21820       20.20060      -27.29280
H         -6.04590       23.87390      -33.02400
H         -7.40550       25.45420      -34.34860
H         -0.97610       21.21840      -27.00540
H         -0.33740       23.21180      -28.34260
H         -4.16520       25.09630      -29.95920
H         -5.15680       27.12790      -30.33830
H         -7.46980       29.22830      -32.20250
H         -7.04560       31.38050      -31.87570
H         -6.42080       31.56060      -30.23270
O         -5.09550       32.17350      -31.76190
H         -4.35510       32.14010      -31.13220
