36
jmc_27
C         -3.51490       22.70480      -29.62150
C         -3.89750       21.60400      -28.81780
C         -3.00620       21.06270      -27.87940
C         -5.45010       25.38670      -31.57750
C         -4.45290       23.21050      -30.68300
C         -6.10190       24.92240      -32.72550
C         -6.84380       25.82030      -33.49680
C         -2.23230       23.27990      -29.41310
C         -1.73030       21.61400      -27.70950
C         -1.35030       22.72780      -28.46970
Cl        -5.52550       20.93260      -28.89020
O         -4.95670       22.45810      -31.49700
N         -4.66880       24.58930      -30.68990
N         -6.94970       27.12910      -33.20040
C         -6.30130       27.57050      -32.12420
C         -5.57230       26.73930      -31.27800
N         -6.51740       28.92090      -31.87420
C         -5.67950       29.79520      -31.20130
O         -4.56480       29.49170      -30.81990
C         -6.32300       31.13850      -30.93310
C         -5.76610       32.00140      -29.81210
C         -5.60790       32.43760      -31.24820
Cl        -1.65480       24.66510      -30.33380
H         -3.30560       20.21080      -27.27610
H         -6.06160       23.88370      -33.03990
H         -7.37660       25.48360      -34.38430
H         -1.04470       21.18770      -26.98310
H         -0.36350       23.15950      -28.33050
H         -4.19280       25.09720      -29.95390
H         -5.10370       27.14110      -30.38440
H         -7.43300       29.24590      -32.16100
H         -7.40110       31.15830      -31.06680
H         -4.87230       31.67410      -29.28820
H         -6.47040       32.55250      -29.19500
H         -6.19300       33.29520      -31.57650
Cl        -3.99570       32.43550      -32.02270
