37
ejm_54
C         -3.46270       22.66250      -29.57230
C         -3.83880       21.56840      -28.75620
C         -2.93700       21.02780      -27.82820
C         -5.42450       25.30490      -31.56590
C         -4.40860       23.15330      -30.63410
C         -6.08580       24.80660      -32.69610
C         -6.87200       25.66960      -33.46310
C         -2.17770       23.23770      -29.37940
C         -1.65950       21.57930      -27.67320
C         -1.28800       22.69150      -28.44010
Cl        -5.47200       20.90620      -28.79890
O         -4.93220       22.38290      -31.41890
N         -4.61160       24.53360      -30.68120
N         -7.01400       26.97630      -33.17810
C         -6.35570       27.45300      -32.12160
C         -5.57710       26.65980      -31.28260
N         -6.61620       28.79660      -31.88610
C         -5.77400       29.72640      -31.33100
O         -4.63280       29.47920      -31.00070
Cl        -1.60560       24.61450      -30.31560
H         -3.23030       20.17580      -27.22190
H         -6.01940       23.76620      -33.00040
H         -7.41130       25.30610      -34.33600
H         -0.96550       21.15470      -26.95370
H         -0.30060       23.12490      -28.31100
H         -4.11690       25.06100      -29.97180
H         -5.10070       27.09550      -30.40930
H         -7.54780       29.08970      -32.15520
H         -7.30420       31.11140      -31.46170
N         -6.34020       30.98160      -31.17880
C         -5.57250       32.14090      -30.68330
H         -5.91800       33.03890      -31.20990
H         -4.50670       32.01220      -30.90870
C         -5.75310       32.36710      -29.17900
H         -5.19760       33.25610      -28.85840
H         -6.81160       32.51800      -28.93710
H         -5.37580       31.50720      -28.61360
