32
ejm_31
C         -3.50580       22.75880      -29.62300
C         -3.90060       21.64500      -28.84330
C         -3.02620       21.08910      -27.89820
C         -5.44080       25.45280      -31.57520
C         -4.42590       23.27670      -30.69540
C         -6.10330       24.98200      -32.71580
C         -6.86600       25.86930      -33.47760
C         -2.22640       23.32930      -29.38520
C         -1.75390       21.63830      -27.69660
C         -1.36140       22.76420      -28.43280
Cl        -5.52320       20.96840      -28.95700
O         -4.91060       22.53020      -31.52630
N         -4.64820       24.65600      -30.69420
N         -6.98720       27.17430      -33.17720
C         -6.33180       27.62220      -32.10850
C         -5.57410       26.80610      -31.27430
N         -6.56940       28.96740      -31.85790
C         -5.69870       29.89290      -31.31070
O         -4.56310       29.60930      -30.98340
C         -6.23890       31.30240      -31.15590
Cl        -1.63160       24.72170      -30.28290
H         -3.33630       20.22630      -27.31620
H         -6.05550       23.94460      -33.03350
H         -7.40520       25.52620      -34.35870
H         -1.08010       21.19930      -26.96680
H         -0.37770       23.19380      -28.26850
H         -4.18390       25.16090      -29.94880
H         -5.09670       27.22470      -30.39330
H         -7.50180       29.26800      -32.11550
H         -7.03110       31.50010      -31.88740
H         -5.43760       32.04990      -31.18540
H         -6.73990       31.37300      -30.18340
