42
ejm_48
C         -3.55060       22.74120      -29.62180
C         -3.95200       21.61610      -28.86320
C         -3.08290       21.04200      -27.92440
C         -5.44620       25.51800      -31.48560
C         -4.46960       23.29590      -30.67500
C         -6.09070       25.10120      -32.65610
C         -6.78010       26.03960      -33.42610
C         -2.26590       23.29550      -29.37930
C         -1.80800       21.58040      -27.71270
C         -1.40540       22.71170      -28.43470
Cl        -5.57490       20.94730      -28.99770
O         -4.94730       22.58310      -31.53890
N         -4.69510       24.67310      -30.61260
N         -6.84420       27.34520      -33.10630
C         -6.21690       27.74330      -31.99850
C         -5.53260       26.86810      -31.15480
N         -6.35640       29.11340      -31.77370
C         -5.48040       29.97000      -31.11510
O         -4.49500       29.55840      -30.53290
Cl        -1.66050       24.69010      -30.26580
H         -3.39840       20.17350      -27.35380
H         -6.07910       24.06930      -32.99460
H         -7.30040       25.74020      -34.33410
H         -1.13870       21.12750      -26.98720
H         -0.41830       23.13110      -28.26430
H         -4.23650       25.14190      -29.84050
H         -5.05990       27.23240      -30.24750
H         -7.19360       29.49780      -32.19500
H         -6.77700       31.59490      -31.70840
C         -5.81150       31.47990      -31.20220
C         -5.84110       32.20240      -29.83400
C         -4.39930       32.66230      -29.55140
C         -3.67120       32.67230      -30.90930
C         -4.72300       32.27450      -31.96320
H         -6.22640       31.57330      -29.02320
H         -6.48710       33.08530      -29.90440
H         -4.39210       33.65590      -29.08850
H         -3.90390       31.96370      -28.86720
H         -3.24490       33.65950      -31.12230
H         -2.85260       31.94330      -30.89540
H         -4.27830       31.70300      -32.78620
H         -5.16700       33.18590      -32.38030
