38
ejm_43
C         -3.57630       22.76640      -29.62620
C         -3.95950       21.63930      -28.86050
C         -3.06710       21.06260      -27.94420
C         -5.48140       25.56310      -31.45080
C         -4.51980       23.32860      -30.65430
C         -6.12220       25.15980      -32.62720
C         -6.79060       26.11110      -33.39960
C         -2.28410       23.31690      -29.41680
C         -1.78610       21.59870      -27.76470
C         -1.39990       22.72930      -28.49650
Cl        -5.58380       20.96670      -28.96010
O         -5.02100       22.62130      -31.50920
N         -4.73830       24.70690      -30.58160
N         -6.83690       27.41750      -33.07830
C         -6.21340       27.80360      -31.96370
C         -5.55060       26.91360      -31.11740
N         -6.31450       29.18030      -31.74610
C         -5.41800       30.01070      -31.07680
O         -4.47120       29.57150      -30.45080
C         -5.65150       31.53340      -31.19830
Cl        -1.69740       24.70900      -30.31910
H         -3.36910       20.19440      -27.36590
H         -6.12180       24.12890      -32.96900
H         -7.30740       25.82070      -34.31250
H         -1.09950       21.14430      -27.05660
H         -0.40720       23.14580      -28.35340
H         -4.26500       25.17030      -29.81510
H         -5.07740       27.26610      -30.20570
H         -7.12250       29.58870      -32.20060
H         -6.55030       31.69020      -31.80590
C         -4.45520       32.22140      -31.90850
H         -4.66180       33.28690      -32.06240
H         -3.54570       32.14080      -31.30190
H         -4.24810       31.76580      -32.88370
C         -5.89580       32.20660      -29.82330
H         -6.02590       33.28870      -29.94080
H         -6.80510       31.81980      -29.34860
H         -5.05290       32.03900      -29.14280
