39
jmc_28
C         -3.52360       22.66500      -29.62370
C         -3.89560       21.55710      -28.82510
C         -2.98830       20.99870      -27.91250
C         -5.46650       25.37740      -31.53240
C         -4.48000       23.18700      -30.66130
C         -6.10900       24.93010      -32.69230
C         -6.83440       25.84120      -33.46290
C         -2.23370       23.23000      -29.43450
C         -1.70700       21.54230      -27.76050
C         -1.33640       22.66370      -28.51420
Cl        -5.53010       20.90150      -28.86650
O         -5.00070       22.44490      -31.47430
N         -4.69070       24.56670      -30.65150
N         -6.93080       27.14800      -33.15660
C         -6.29360       27.57450      -32.06670
C         -5.58120       26.72770      -31.21990
N         -6.48910       28.93100      -31.82690
C         -5.66750       29.79610      -31.12350
O         -4.60770       29.45800      -30.63210
C         -6.25330       31.19000      -30.99380
C         -5.95920       31.99160      -29.73490
C         -5.39220       32.44400      -31.05890
Cl        -1.66860       24.62310      -30.34900
H         -3.28020       20.14100      -27.31370
H         -6.07150       23.89500      -33.01880
H         -7.35930       25.51800      -34.36000
H         -1.00970       21.10400      -27.05260
H         -0.34600       23.09070      -28.38710
H         -4.20330       25.06610      -29.91710
H         -5.11550       27.11350      -30.31780
H         -7.37480       29.28040      -32.17290
H         -7.25520       31.29460      -31.40090
H         -5.26630       31.58400      -29.00390
H         -6.76150       32.58690      -29.30790
H         -5.85770       33.32800      -31.48590
C         -3.88910       32.41950      -31.31340
H         -3.67490       32.14260      -32.35220
H         -3.36870       31.71280      -30.65650
H         -3.45270       33.40730      -31.12520
