39
ejm_47
C         -3.54900       22.69560      -29.59920
C         -3.93480       21.58510      -28.81180
C         -3.04440       21.02340      -27.88530
C         -5.46560       25.43130      -31.49600
C         -4.48760       23.22710      -30.64670
C         -6.10520       24.99810      -32.66340
C         -6.79810       25.92560      -33.44390
C         -2.26080       23.25600      -29.39140
C         -1.76420       21.56330      -27.71220
C         -1.37920       22.68490      -28.45880
Cl        -5.56260       20.92090      -28.89570
O         -4.98010       22.49750      -31.48780
N         -4.71240       24.60390      -30.60940
N         -6.86670       27.23470      -33.13860
C         -6.24030       27.64890      -32.03570
C         -5.55850       26.78320      -31.18080
N         -6.39550       29.01990      -31.82220
C         -5.55170       29.90670      -31.16260
O         -4.56850       29.46270      -30.59420
Cl        -1.67690       24.64240      -30.30620
H         -3.34810       20.16370      -27.29530
H         -6.08850       23.96230      -32.98910
H         -7.31740       25.61400      -34.34840
H         -1.07780       21.12030      -26.99660
H         -0.38880       23.10740      -28.31730
H         -4.24550       25.08790      -29.85180
H         -5.09360       27.15520      -30.27260
H         -7.24280       29.38730      -32.23850
H         -7.05020       31.56930      -31.88710
C         -6.11790       31.38040      -31.34540
C         -4.76100       32.10100      -31.72520
C         -5.21360       33.14840      -30.64600
C         -5.87500       31.94160      -29.88950
H         -3.80820       31.62310      -31.47590
H         -4.68460       32.48270      -32.74830
H         -4.41050       33.66400      -30.10970
H         -5.92510       33.89840      -31.00600
H         -5.18330       31.42160      -29.21910
H         -6.77310       32.20270      -29.32050
