41
ejm_44
C         -3.56800       22.67170      -29.62320
C         -3.94450       21.55060      -28.84850
C         -3.04470       20.98010      -27.93580
C         -5.46380       25.49040      -31.39230
C         -4.52220       23.23460      -30.63900
C         -6.09070       25.13220      -32.58960
C         -6.70520       26.12550      -33.35630
C         -2.27790       23.22990      -29.42340
C         -1.76360       21.52090      -27.76720
C         -1.38650       22.65070      -28.50550
Cl        -5.57420       20.89200      -28.92440
O         -5.01470       22.54330      -31.51230
N         -4.75510       24.60500      -30.52720
N         -6.70610       27.42740      -33.01050
C         -6.09430       27.76680      -31.87390
C         -5.49570       26.83140      -31.02980
N         -6.12650       29.14520      -31.63600
C         -5.23830       29.91040      -30.87010
O         -4.36570       29.38870      -30.20110
C         -5.39790       31.46690      -30.88390
Cl        -1.70870       24.62970      -30.32650
H         -3.34170       20.11540      -27.34980
H         -6.11790       24.10750      -32.94810
H         -7.21150       25.87480      -34.28670
H         -1.07150       21.07370      -27.05980
H         -0.39630       23.07480      -28.36760
H         -4.28870       25.04550      -29.74320
H         -5.03400       27.13690      -30.09550
H         -6.86640       29.60910      -32.14940
C         -6.80740       31.91200      -31.35350
H         -6.88040       33.00540      -31.37920
H         -7.05090       31.54030      -32.35560
H         -7.57300       31.54560      -30.65970
C         -5.15840       32.05450      -29.46050
H         -5.24480       33.14720      -29.47020
H         -5.89610       31.67630      -28.74320
H         -4.15930       31.80630      -29.08380
C         -4.32740       32.07010      -31.83320
H         -4.43780       33.15870      -31.89970
H         -3.31690       31.86410      -31.46170
H         -4.40320       31.65340      -32.84430
