39
ejm_45
C         -3.49020       22.69880      -29.60570
C         -3.86380       21.59290      -28.80330
C         -2.96600       21.04990      -27.87260
C         -5.45830       25.36280      -31.56200
C         -4.43720       23.20000      -30.66310
C         -6.12540       24.88170      -32.69580
C         -6.91120       25.75770      -33.44820
C         -2.20920       23.27880      -29.40000
C         -1.69390       21.60890      -27.70330
C         -1.32310       22.72910      -28.45870
Cl        -5.49060       20.91860      -28.86400
O         -4.95630       22.43980      -31.46010
N         -4.64630       24.58000      -30.68840
N         -7.04960       27.06060      -33.14300
C         -6.38520       27.51750      -32.08340
C         -5.60460       26.71360      -31.26060
N         -6.63220       28.85880      -31.82580
C         -5.73490       29.80230      -31.35150
O         -4.58040       29.51780      -31.09360
C         -6.26790       31.23590      -31.24100
Cl        -1.63900       24.66930      -30.31770
H         -3.25840       20.19340      -27.27240
H         -6.06190       23.84570      -33.01540
H         -7.45340       25.40780      -34.32480
H         -1.00460       21.18510      -26.97890
H         -0.34060       23.16900      -28.31510
H         -4.15850       25.09750      -29.96700
H         -5.11920       27.14070      -30.38810
H         -7.56980       29.15250      -32.07220
H         -5.92710       31.76660      -32.13760
H         -7.36120       31.22220      -31.31960
H         -6.14510       31.54690      -29.06370
C         -5.81730       32.00140      -29.99460
C         -4.48090       32.70570      -29.96590
C         -5.75870       33.51040      -30.00930
H         -3.92170       32.69180      -29.03450
H         -3.86670       32.67090      -30.86150
H         -6.05690       34.03600      -29.10640
H         -6.01110       34.02170      -30.93420
