37
jmc_30
C         -3.52630       22.75280      -29.63480
C         -3.92910       21.64680      -28.84830
C         -3.05940       21.09160      -27.89860
C         -5.44160       25.45780      -31.58900
C         -4.44400       23.27440      -30.70690
C         -6.09840       24.99560      -32.73580
C         -6.84310       25.89340      -33.50390
C         -2.24210       23.31410      -29.40190
C         -1.78330       21.63220      -27.70030
C         -1.38100       22.74810      -28.44650
Cl        -5.55590       20.98070      -28.95950
O         -4.92870       22.53200      -31.54110
N         -4.66510       24.65340      -30.70000
N         -6.94970       27.20120      -33.20460
C         -6.29670       27.64290      -32.13150
C         -5.56230       26.81170      -31.28890
N         -6.52540       28.98860      -31.86670
C         -5.68710       29.86760      -31.20120
O         -4.55390       29.58400      -30.86400
C         -6.35370       31.18990      -30.87750
C         -5.79940       32.01480      -29.72520
C         -5.68210       32.53070      -31.14350
Cl        -1.63980       24.69790      -30.30800
H         -3.37630       20.23600      -27.30960
H         -6.06100       23.95750      -33.05250
H         -7.37970       25.55700      -34.38920
H         -1.11440       21.19470      -26.96510
H         -0.39330       23.17010      -28.28600
H         -4.20690       25.15280      -29.94720
H         -5.09160       27.21480      -30.39700
H         -7.45320       29.29990      -32.12820
H         -7.43420       31.18580      -30.99140
H         -4.89250       31.68090      -29.22860
H         -6.50610       32.51390      -29.06800
C         -4.38750       32.61250      -31.78250
N         -3.36740       32.71680      -32.33420
H         -6.33120       33.36430      -31.39710
