33
ejm_55
C         -3.48560       22.68640      -29.59330
C         -3.86490       21.58710      -28.78610
C         -2.96560       21.03950      -27.86020
C         -5.43960       25.35200      -31.56150
C         -4.43050       23.18890      -30.65030
C         -6.09150       24.86840      -32.70220
C         -6.86760       25.74210      -33.46580
C         -2.19970       23.25710      -29.39420
C         -1.68790       21.58800      -27.69660
C         -1.31250       22.70420      -28.45570
Cl        -5.49820       20.92570      -28.83460
O         -4.95440       22.42770      -31.44300
N         -4.63410       24.57010      -30.68060
N         -7.00770       27.04590      -33.16670
C         -6.36090       27.50990      -32.09770
C         -5.59040       26.70340      -31.26390
N         -6.61140       28.85240      -31.85390
C         -5.82330       29.75950      -31.19730
O         -4.72500       29.53500      -30.72860
Cl        -1.62320       24.63710      -30.32150
H         -3.26170       20.18360      -27.26070
H         -6.02510       23.83150      -33.01800
H         -7.40040       25.39030      -34.34740
H         -0.99780       21.15770      -26.97680
H         -0.32480       23.13510      -28.32100
H         -4.14570       25.08860      -29.96030
H         -5.11720       27.12200      -30.38050
H         -7.52450       29.17860      -32.14720
O         -6.49700       30.93430      -31.09930
C         -5.90490       31.99290      -30.32710
H         -4.93200       32.28510      -30.74110
H         -6.55760       32.87450      -30.32800
H         -5.76060       31.68240      -29.28510
