36
ejm_46
C         -3.50690       22.69330      -29.59010
C         -3.88090       21.58610      -28.79070
C         -2.98070       21.03630      -27.86650
C         -5.45440       25.37270      -31.54390
C         -4.45460       23.20010      -30.64370
C         -6.10430       24.90170      -32.69080
C         -6.85460       25.79130      -33.46310
C         -2.22270       23.26800      -29.38840
C         -1.70560       21.59020      -27.70050
C         -1.33400       22.71210      -28.45310
Cl        -5.50940       20.91670      -28.84920
O         -4.97100       22.44520      -31.44750
N         -4.66480       24.57980      -30.65870
N         -6.97040       27.09910      -33.16820
C         -6.32670       27.54730      -32.09180
C         -5.58660       26.72560      -31.24610
N         -6.54090       28.89850      -31.85150
C         -5.66810       29.79480      -31.26320
O         -4.54950       29.49580      -30.89040
C         -6.25070       31.18480      -31.11940
C         -6.02460       31.94400      -29.82250
C         -5.32000       32.38560      -31.08140
Cl        -1.65100       24.65620      -30.30840
H         -3.27330       20.17620      -27.27160
H         -6.05390       23.86360      -33.00570
H         -7.38410       25.44940      -34.35050
H         -1.01340       21.15820      -26.98380
H         -0.34800       23.14590      -28.31520
H         -4.18010       25.09090      -29.93060
H         -5.11620       27.13820      -30.35840
H         -7.45940       29.22420      -32.12790
H         -7.20750       31.33970      -31.61030
H         -5.41300       31.49080      -29.04730
H         -6.82870       32.57420      -29.45260
H         -5.65690       33.31900      -31.52380
H         -4.24820       32.21670      -31.13900
